%chk=water_frame2.chk
# hf/3-21g geom=connectivity

Title Card Required

0 1
 O                  0.00000000    0.00000000    0.11646300
 H                  0.00000000    0.77057700   -0.46585200
 H                  0.00000000   -0.77057700   -0.46585200

 1 2 1.0 3 1.0
 2
 3

