%chk=water_frame3.chk
# hf/3-21g geom=connectivity

Title Card Required

0 1
 O                  0.00000000    0.00000000    0.12346300
 H                  0.00000000    0.72757700   -0.52185200
 H                  0.00000000   -0.72757700   -0.52185200

 1 2 1.0 3 1.0
 2
 3

