%chk=water_frame1.chk
# hf/3-21g geom=connectivity

Title Card Required

0 1
 O                  0.00000000    0.00000000    0.10946300
 H                  0.00000000    0.81357700   -0.40985200
 H                  0.00000000   -0.81357700   -0.40985200

 1 2 1.0 3 1.0
 2
 3

