%rwf=temp_file_name.rwf
%nosave
%mem=64GB
%nprocshared=20
%chk=temp_file_name.chk
# opt 6-31+g(d) geom=connectivity m062x

Generated from MOL2

0 1
 C    2.468100  -4.659900  -1.747900
 C    2.433300  -3.194600  -1.835700
 C    1.695100  -2.590900  -0.849000
 C    0.656300  -1.767800  -1.089200
 C   -0.306800  -1.245900  -0.095500
 O    0.027200  -1.698700   1.226500
 C   -0.179100   0.235600   0.027700
 C    1.127000   0.873200   0.232600
 C   -1.261400   1.045700   0.014300
 C   -2.556400   0.568700  -0.009600
 O   -3.504400   1.337400  -0.295900
 C   -2.816300  -0.851800   0.314200
 C   -1.789400  -1.765700  -0.441900
 C   -2.151200  -1.715400  -1.975400
 C   -1.997900  -3.256200   0.005500
 C    3.068000  -2.561900  -2.853100
 C    3.197600  -1.199600  -3.073300
 O    3.108700  -0.266800  -2.099300
 O    3.464000  -0.779300  -4.222000
 H    2.475300  -4.961000  -0.700300
 H    1.587700  -5.074400  -2.239000
 H    3.367200  -5.032100  -2.239000
 H    1.950700  -2.777500   0.194000
 H    0.591500  -1.509600  -2.146200
 H    0.031800  -2.658600   1.244300
 H    1.321400   0.968100   1.300900
 H    1.905200   0.262700  -0.225500
 H    1.124300   1.862200  -0.225500
 H   -1.083700   2.121100   0.023000
 H   -2.624000  -0.950400   1.382600
 H   -3.807900  -1.067900  -0.083400
 H   -2.242100  -2.730900  -2.360800
 H   -3.097000  -1.190200  -2.108500
 H   -1.364600  -1.190200  -2.517300
 H   -2.005600  -3.311200   1.094100
 H   -2.947900  -3.622800  -0.383500
 H   -1.185100  -3.869500  -0.383500
 H    3.529600  -3.228600  -3.581500
 H    3.030800  -0.700900  -1.246600

 1 2 1.0 20 1.0 21 1.0 22 1.0
 2 3 1.0 16 2.0
 3 4 2.0 23 1.0
 4 5 1.0 24 1.0
 5 6 1.0 7 1.0 13 1.0
 6 25 1.0
 7 8 1.0 9 2.0
 8 26 1.0 27 1.0 28 1.0
 9 10 1.0 29 1.0
 10 11 2.0 12 1.0
 11
 12 13 1.0 30 1.0 31 1.0
 13 14 1.0 15 1.0
 14 32 1.0 33 1.0 34 1.0
 15 35 1.0 36 1.0 37 1.0
 16 17 1.0 38 1.0
 17 18 1.0 19 2.0
 18 39 1.0
 19
 20
 21
 22
 23
 24
 25
 26
 27
 28
 29
 30
 31
 32
 33
 34
 35
 36
 37
 38
 39

