%chk=C:\Users\respondus\Documents\ACO-zeolite.chk
# pbepbe/3-21g/auto

Title Card Required

0 1
 O                  2.47625000    2.47625000    2.47625000
 O                  1.85916850    1.85916850    0.00000000
 Si                 1.54914200    1.54914200    1.54914200
 O                  7.42875000    2.47625000    2.47625000
 O                  7.42875000    7.42875000    2.47625000
 O                  2.47625000    7.42875000    2.47625000
 O                  2.47625000    7.42875000    7.42875000
 O                  2.47625000    2.47625000    7.42875000
 O                  7.42875000    2.47625000    7.42875000
 O                  7.42875000    7.42875000    7.42875000
 O                  8.04583150    1.85916850    0.00000000
 O                  8.04583150    8.04583150    0.00000000
 O                  1.85916850    8.04583150    0.00000000
 O                  0.00000000    1.85916850    1.85916850
 O                  8.04583150    0.00000000    1.85916850
 O                  0.00000000    8.04583150    1.85916850
 O                  1.85916850    0.00000000    1.85916850
 O                  0.00000000    8.04583150    8.04583150
 O                  1.85916850    0.00000000    8.04583150
 O                  0.00000000    1.85916850    8.04583150
 O                  8.04583150    0.00000000    8.04583150
 O                  6.81166850    6.81166850    4.95250000
 O                  3.09333150    6.81166850    4.95250000
 O                  3.09333150    3.09333150    4.95250000
 O                  6.81166850    3.09333150    4.95250000
 O                  4.95250000    6.81166850    6.81166850
 O                  3.09333150    4.95250000    6.81166850
 O                  4.95250000    3.09333150    6.81166850
 O                  6.81166850    4.95250000    6.81166850
 O                  4.95250000    3.09333150    3.09333150
 O                  6.81166850    4.95250000    3.09333150
 O                  4.95250000    6.81166850    3.09333150
 O                  3.09333150    4.95250000    3.09333150
 Si                 8.35585800    1.54914200    1.54914200
 Si                 8.35585800    8.35585800    1.54914200
 Si                 1.54914200    8.35585800    1.54914200
 Si                 1.54914200    8.35585800    8.35585800
 Si                 1.54914200    1.54914200    8.35585800
 Si                 8.35585800    1.54914200    8.35585800
 Si                 8.35585800    8.35585800    8.35585800
 Si                 6.50164200    6.50164200    6.50164200
 Si                 3.40335800    6.50164200    6.50164200
 Si                 3.40335800    3.40335800    6.50164200
 Si                 6.50164200    3.40335800    6.50164200
 Si                 6.50164200    3.40335800    3.40335800
 Si                 6.50164200    6.50164200    3.40335800
 Si                 3.40335800    6.50164200    3.40335800
 Si                 3.40335800    3.40335800    3.40335800
 Tv                 9.90500000    0.00000000    0.00000000
 Tv                 0.00000000    9.90500000    0.00000000
 Tv                 0.00000000    0.00000000    9.90500000

