%chk=C:\Users\respondus\Documents\AEI-zeolite.chk
# pbepbe/3-21g/auto

Title Card Required

0 1
 O                  0.00000000    0.00504280    2.98541580
 O                  1.98179730    0.55218660    4.62425000
 O                  1.71236040    1.90996050    2.39166210
 O                  2.46733080   11.99808190    2.31767410
 O                  2.00368050   10.49154540    0.21456520
 O                  0.00000000    9.28379480   17.51295960
 O                  2.45365380    8.41139040   17.16706570
 O                 10.12645080    0.00000000    0.00000000
 Si                 1.54003020    0.46519830    3.07790080
 Si                 1.54276560    9.72125770   17.37608180
 Si                10.57642410   11.39924940    0.96369370
 O                  0.00000000   12.60195720   12.23391580
 O                  0.00000000   12.60195720   15.51158420
 O                  0.00000000    0.00504280    6.26308420
 O                  6.83850000    6.30854280    2.98541580
 O                  6.83850000    6.29845720   12.23391580
 O                  6.83850000    6.29845720   15.51158420
 O                  6.83850000    6.30854280    6.26308420
 O                 11.69520270   12.05481340   13.87275000
 O                  1.98179730   12.05481340   13.87275000
 O                 11.69520270    0.55218660    4.62425000
 O                  8.82029730    6.85568660    4.62425000
 O                  4.85670270    5.75131340   13.87275000
 O                  8.82029730    5.75131340   13.87275000
 O                  4.85670270    6.85568660    4.62425000
 O                 11.96463960   10.69703950   11.64016210
 O                  1.71236040   10.69703950   16.10533790
 O                 11.96463960    1.90996050    6.85683790
 O                 11.96463960   10.69703950   16.10533790
 O                  1.71236040    1.90996050    6.85683790
 O                 11.96463960    1.90996050    2.39166210
 O                  1.71236040   10.69703950   11.64016210
 O                  8.55086040    8.21346050    2.39166210
 O                  5.12613960    4.39353950   11.64016210
 O                  8.55086040    4.39353950   16.10533790
 O                  5.12613960    8.21346050    6.85683790
 O                  5.12613960    4.39353950   16.10533790
 O                  8.55086040    8.21346050    6.85683790
 O                  5.12613960    8.21346050    2.39166210
 O                  8.55086040    4.39353950   11.64016210
 O                 11.20966920    0.60891810   11.56617410
 O                  2.46733080    0.60891810   16.17932590
 O                 11.20966920   11.99808190    6.93082590
 O                 11.20966920    0.60891810   16.17932590
 O                  2.46733080   11.99808190    6.93082590
 O                 11.20966920   11.99808190    2.31767410
 O                  2.46733080    0.60891810   11.56617410
 O                  9.30583080    5.69458190    2.31767410
 O                  4.37116920    6.91241810   11.56617410
 O                  9.30583080    6.91241810   16.17932590
 O                  4.37116920    5.69458190    6.93082590
 O                  4.37116920    6.91241810   16.17932590
 O                  9.30583080    5.69458190    6.93082590
 O                  4.37116920    5.69458190    2.31767410
 O                  9.30583080    6.91241810   11.56617410
 O                 11.67331950    2.11545460    9.46306520
 O                  2.00368050    2.11545460   18.28243480
 O                 11.67331950   10.49154540    9.03393480
 O                 11.67331950    2.11545460   18.28243480
 O                  2.00368050   10.49154540    9.03393480
 O                 11.67331950   10.49154540    0.21456520
 O                  2.00368050    2.11545460    9.46306520
 O                  8.84218050    4.18804540    0.21456520
 O                  4.83481950    8.41895460    9.46306520
 O                  8.84218050    8.41895460   18.28243480
 O                  4.83481950    4.18804540    9.03393480
 O                  4.83481950    8.41895460   18.28243480
 O                  8.84218050    4.18804540    9.03393480
 O                  4.83481950    4.18804540    0.21456520
 O                  8.84218050    8.41895460    9.46306520
 O                  0.00000000    3.32320520    8.26445960
 O                  0.00000000    3.32320520    0.98404040
 O                  0.00000000    9.28379480   10.23254040
 O                  6.83850000    2.98029480   17.51295960
 O                  6.83850000    9.62670520    8.26445960
 O                  6.83850000    9.62670520    0.98404040
 O                  6.83850000    2.98029480   10.23254040
 O                 11.22334620    4.19560960    7.91856570
 O                  2.45365380    4.19560960    1.32993430
 O                 11.22334620    8.41139040   10.57843430
 O                 11.22334620    4.19560960    1.32993430
 O                  2.45365380    8.41139040   10.57843430
 O                 11.22334620    8.41139040   17.16706570
 O                  2.45365380    4.19560960    7.91856570
 O                  9.29215380    2.10789040   17.16706570
 O                  4.38484620   10.49910960    7.91856570
 O                  9.29215380   10.49910960    1.32993430
 O                  4.38484620    2.10789040   10.57843430
 O                  4.38484620   10.49910960    1.32993430
 O                  9.29215380    2.10789040   10.57843430
 O                  4.38484620    2.10789040   17.16706570
 O                  9.29215380   10.49910960    7.91856570
 O                  3.55054920    0.00000000    9.24850000
 O                  3.55054920    0.00000000    0.00000000
 O                 10.12645080    0.00000000    9.24850000
 O                  3.28795080    6.30350000    0.00000000
 O                 10.38904920    6.30350000    9.24850000
 O                 10.38904920    6.30350000    0.00000000
 O                  3.28795080    6.30350000    9.24850000
 Si                12.13696980   12.14180170   12.32640080
 Si                 1.54003020   12.14180170   15.41909920
 Si                12.13696980    0.46519830    6.17059920
 Si                12.13696980   12.14180170   15.41909920
 Si                 1.54003020    0.46519830    6.17059920
 Si                12.13696980    0.46519830    3.07790080
 Si                 1.54003020   12.14180170   12.32640080
 Si                 8.37853020    6.76869830    3.07790080
 Si                 5.29846980    5.83830170   12.32640080
 Si                 8.37853020    5.83830170   15.41909920
 Si                 5.29846980    6.76869830    6.17059920
 Si                 5.29846980    5.83830170   15.41909920
 Si                 8.37853020    6.76869830    6.17059920
 Si                 5.29846980    6.76869830    3.07790080
 Si                 8.37853020    5.83830170   12.32640080
 Si                12.13423440    2.88574230    8.12758180
 Si                 1.54276560    2.88574230    1.12091820
 Si                12.13423440    9.72125770   10.36941820
 Si                12.13423440    2.88574230    1.12091820
 Si                 1.54276560    9.72125770   10.36941820
 Si                12.13423440    9.72125770   17.37608180
 Si                 1.54276560    2.88574230    8.12758180
 Si                 8.38126560    3.41775770   17.37608180
 Si                 5.29573440    9.18924230    8.12758180
 Si                 8.38126560    9.18924230    1.12091820
 Si                 5.29573440    3.41775770   10.36941820
 Si                 5.29573440    9.18924230    1.12091820
 Si                 8.38126560    3.41775770   10.36941820
 Si                 5.29573440    3.41775770   17.37608180
 Si                 8.38126560    9.18924230    8.12758180
 Si                 3.10057590    1.20775060   10.21219370
 Si                10.57642410    1.20775060   17.53330630
 Si                 3.10057590   11.39924940    8.28480630
 Si                 3.10057590    1.20775060   17.53330630
 Si                10.57642410   11.39924940    8.28480630
 Si                 3.10057590   11.39924940    0.96369370
 Si                10.57642410    1.20775060   10.21219370
 Si                 3.73792410    5.09574940    0.96369370
 Si                 9.93907590    7.51125060   10.21219370
 Si                 3.73792410    7.51125060   17.53330630
 Si                 9.93907590    5.09574940    8.28480630
 Si                 9.93907590    7.51125060   17.53330630
 Si                 3.73792410    5.09574940    8.28480630
 Si                 9.93907590    5.09574940    0.96369370
 Si                 3.73792410    7.51125060   10.21219370
 Tv                13.67700000    0.00000000    0.00000000
 Tv                 0.00000000   12.60700000    0.00000000
 Tv                 0.00000000    0.00000000   18.49700000

