%chk=C:\Users\respondus\Documents\AEL-zeolite.chk
# pbepbe/3-21g/auto

Title Card Required

0 1
 O                  6.61302720   17.88057630    1.66730400
 O                  6.23400000    1.14059610    3.34800000
 O                  5.89320800    1.51330320    0.77137920
 O                  0.00000000    1.15932510    1.73694240
 O                  2.17358800    3.36934710   12.31796160
 O                  4.15600000    1.64815200   12.19341600
 O                  6.23400000    4.68225000   10.04400000
 O                  0.00000000    4.68225000   11.65505760
 Si                 6.76430560    0.73979550    1.88291520
 Si                 2.61079920    1.84667940   12.59919360
 Si                 6.70612160    4.68225000   11.58006240
 O                  1.69897280   10.21292370    1.66730400
 O                  6.61302720    0.84842370   11.72469600
 O                  1.69897280    8.51607630   11.72469600
 O                  1.69897280    0.84842370   11.72469600
 O                  6.61302720    8.51607630   11.72469600
 O                  1.69897280   17.88057630    1.66730400
 O                  6.61302720   10.21292370    1.66730400
 O                  2.45702720    8.51607630    8.36330400
 O                  5.85497280    0.84842370    8.36330400
 O                  2.45702720   10.21292370    5.02869600
 O                  5.85497280   17.88057630    5.02869600
 O                  5.85497280   10.21292370    5.02869600
 O                  2.45702720   17.88057630    5.02869600
 O                  5.85497280    8.51607630    8.36330400
 O                  2.45702720    0.84842370    8.36330400
 O                  2.07800000    8.22390390    3.34800000
 O                  6.23400000   17.58840390   10.04400000
 O                  2.07800000   10.50509610   10.04400000
 O                  2.07800000   17.58840390   10.04400000
 O                  6.23400000   10.50509610   10.04400000
 O                  2.07800000    1.14059610    3.34800000
 O                  6.23400000    8.22390390    3.34800000
 O                  2.41879200    7.85119680    0.77137920
 O                  5.89320800   17.21569680   12.62062080
 O                  2.41879200   10.87780320   12.62062080
 O                  2.41879200   17.21569680   12.62062080
 O                  5.89320800   10.87780320   12.62062080
 O                  2.41879200    1.51330320    0.77137920
 O                  5.89320800    7.85119680    0.77137920
 O                  1.73720800   10.87780320    7.46737920
 O                  6.57479200   17.21569680    7.46737920
 O                  1.73720800    7.85119680    5.92462080
 O                  6.57479200    1.51330320    5.92462080
 O                  6.57479200    7.85119680    5.92462080
 O                  1.73720800    1.51330320    5.92462080
 O                  6.57479200   10.87780320    7.46737920
 O                  1.73720800   17.21569680    7.46737920
 O                  0.00000000    8.20517490    1.73694240
 O                  0.00000000   17.56967490   11.65505760
 O                  0.00000000   10.52382510   11.65505760
 O                  4.15600000   10.52382510    8.43294240
 O                  4.15600000   17.56967490    8.43294240
 O                  4.15600000    8.20517490    4.95905760
 O                  4.15600000    1.15932510    4.95905760
 O                  6.13841200    5.99515290   12.31796160
 O                  2.17358800   15.35965290    1.07403840
 O                  6.13841200   12.73384710    1.07403840
 O                  6.13841200   15.35965290    1.07403840
 O                  2.17358800   12.73384710    1.07403840
 O                  6.13841200    3.36934710   12.31796160
 O                  2.17358800    5.99515290   12.31796160
 O                  6.32958800   12.73384710    5.62196160
 O                  1.98241200   15.35965290    5.62196160
 O                  6.32958800    5.99515290    7.77003840
 O                  1.98241200    3.36934710    7.77003840
 O                  1.98241200    5.99515290    7.77003840
 O                  6.32958800    3.36934710    7.77003840
 O                  1.98241200   12.73384710    5.62196160
 O                  6.32958800   15.35965290    5.62196160
 O                  4.15600000    7.71634800   12.19341600
 O                  4.15600000   17.08084800    1.19858400
 O                  4.15600000   11.01265200    1.19858400
 O                  0.00000000   11.01265200    5.49741600
 O                  0.00000000   17.08084800    5.49741600
 O                  0.00000000    7.71634800    7.89458400
 O                  0.00000000    1.64815200    7.89458400
 O                  2.07800000    4.68225000   10.04400000
 O                  6.23400000   14.04675000    3.34800000
 O                  2.07800000   14.04675000    3.34800000
 O                  0.00000000   14.04675000    1.73694240
 O                  4.15600000   14.04675000    4.95905760
 O                  4.15600000    4.68225000    8.43294240
 Si                 1.54769440    8.62470450    1.88291520
 Si                 6.76430560   17.98920450   11.50908480
 Si                 1.54769440   10.10429550   11.50908480
 Si                 1.54769440   17.98920450   11.50908480
 Si                 6.76430560   10.10429550   11.50908480
 Si                 1.54769440    0.73979550    1.88291520
 Si                 6.76430560    8.62470450    1.88291520
 Si                 2.60830560   10.10429550    8.57891520
 Si                 5.70369440   17.98920450    8.57891520
 Si                 2.60830560    8.62470450    4.81308480
 Si                 5.70369440    0.73979550    4.81308480
 Si                 5.70369440    8.62470450    4.81308480
 Si                 2.60830560    0.73979550    4.81308480
 Si                 5.70369440   10.10429550    8.57891520
 Si                 2.60830560   17.98920450    8.57891520
 Si                 5.70120080    7.51782060   12.59919360
 Si                 2.61079920   16.88232060    0.79280640
 Si                 5.70120080   11.21117940    0.79280640
 Si                 5.70120080   16.88232060    0.79280640
 Si                 2.61079920   11.21117940    0.79280640
 Si                 5.70120080    1.84667940   12.59919360
 Si                 2.61079920    7.51782060   12.59919360
 Si                 6.76679920   11.21117940    5.90319360
 Si                 1.54520080   16.88232060    5.90319360
 Si                 6.76679920    7.51782060    7.48880640
 Si                 1.54520080    1.84667940    7.48880640
 Si                 1.54520080    7.51782060    7.48880640
 Si                 6.76679920    1.84667940    7.48880640
 Si                 1.54520080   11.21117940    5.90319360
 Si                 6.76679920   16.88232060    5.90319360
 Si                 1.60587840    4.68225000   11.58006240
 Si                 6.70612160   14.04675000    1.81193760
 Si                 1.60587840   14.04675000    1.81193760
 Si                 2.55012160   14.04675000    4.88406240
 Si                 5.76187840   14.04675000    4.88406240
 Si                 2.55012160    4.68225000    8.50793760
 Si                 5.76187840    4.68225000    8.50793760
 Tv                 8.31200000    0.00000000    0.00000000
 Tv                 0.00000000   18.72900000    0.00000000
 Tv                 0.00000000    0.00000000   13.39200000

