%chk=C:\Users\respondus\Documents\AEN-zeolite.chk
# pbepbe/3-21g/auto

Title Card Required

0 1
 O                  2.04211620    6.98466500    2.19122640
 O                  1.85310000    6.67750000    4.81800000
 O                  0.00000000    7.99964500    3.49786800
 O                  2.39420520    9.02530900    3.80718360
 O                  3.27072150    8.63667850    7.87839360
 O                  4.63275000    6.50789150    7.22700000
 O                  3.50977140    6.67750000    0.00000000
 O                  4.63275000   10.01625000    0.00000000
 O                  4.63275000    9.21094350    2.40900000
 Si                 1.56957570    7.66042800    3.57688320
 Si                 3.36708270    7.03942050    8.07496800
 Si                 5.56671240    9.91475200    1.29989640
 O                  7.22338380    6.37033500    7.00922640
 O                  2.04211620    6.37033500    7.44477360
 O                  7.22338380    6.98466500    2.62677360
 O                 16.48888380    6.37033500    7.44477360
 O                 11.30761620    6.98466500    2.62677360
 O                 16.48888380    6.98466500    2.19122640
 O                 11.30761620    6.37033500    7.00922640
 O                 11.30761620    0.30716500    2.19122640
 O                 16.48888380   13.04783500    7.00922640
 O                 11.30761620   13.04783500    7.44477360
 O                 16.48888380    0.30716500    2.62677360
 O                  7.22338380   13.04783500    7.44477360
 O                  2.04211620    0.30716500    2.62677360
 O                  7.22338380    0.30716500    2.19122640
 O                  2.04211620   13.04783500    7.00922640
 O                  7.41240000    6.67750000    0.00000000
 O                 16.67790000    6.67750000    4.81800000
 O                 11.11860000    6.67750000    0.00000000
 O                 11.11860000    0.00000000    4.81800000
 O                 16.67790000    0.00000000    0.00000000
 O                  7.41240000    0.00000000    4.81800000
 O                  1.85310000    0.00000000    0.00000000
 O                  9.26550000    5.35535500    8.31586800
 O                  0.00000000    5.35535500    6.13813200
 O                  9.26550000    7.99964500    1.32013200
 O                  9.26550000    1.32214500    3.49786800
 O                  0.00000000   12.03285500    8.31586800
 O                  9.26550000   12.03285500    6.13813200
 O                  0.00000000    1.32214500    1.32013200
 O                  6.87129480    4.32969100    8.62518360
 O                  2.39420520    4.32969100    5.82881640
 O                  6.87129480    9.02530900    1.01081640
 O                 16.13679480    4.32969100    5.82881640
 O                 11.65970520    9.02530900    1.01081640
 O                 16.13679480    9.02530900    3.80718360
 O                 11.65970520    4.32969100    8.62518360
 O                 11.65970520    2.34780900    3.80718360
 O                 16.13679480   11.00719100    8.62518360
 O                 11.65970520   11.00719100    5.82881640
 O                 16.13679480    2.34780900    1.01081640
 O                  6.87129480   11.00719100    5.82881640
 O                  2.39420520    2.34780900    1.01081640
 O                  6.87129480    2.34780900    3.80718360
 O                  2.39420520   11.00719100    8.62518360
 O                  5.99477850    4.71832150    3.06039360
 O                  3.27072150    4.71832150    1.75760640
 O                  5.99477850    8.63667850    6.57560640
 O                 15.26027850    4.71832150    1.75760640
 O                 12.53622150    8.63667850    6.57560640
 O                 15.26027850    8.63667850    7.87839360
 O                 12.53622150    4.71832150    3.06039360
 O                 12.53622150    1.95917850    7.87839360
 O                 15.26027850   11.39582150    3.06039360
 O                 12.53622150   11.39582150    1.75760640
 O                 15.26027850    1.95917850    6.57560640
 O                  5.99477850   11.39582150    1.75760640
 O                  3.27072150    1.95917850    6.57560640
 O                  5.99477850    1.95917850    7.87839360
 O                  3.27072150   11.39582150    3.06039360
 O                  4.63275000    6.84710850    2.40900000
 O                 13.89825000    6.84710850    2.40900000
 O                 13.89825000    6.50789150    7.22700000
 O                 13.89825000   13.18539150    7.22700000
 O                 13.89825000    0.16960850    2.40900000
 O                  4.63275000    0.16960850    2.40900000
 O                  4.63275000   13.18539150    7.22700000
 O                  5.75572860    6.67750000    4.81800000
 O                 15.02122860    6.67750000    0.00000000
 O                 12.77527140    6.67750000    4.81800000
 O                 12.77527140    0.00000000    0.00000000
 O                 15.02122860    0.00000000    4.81800000
 O                  5.75572860    0.00000000    0.00000000
 O                  3.50977140    0.00000000    4.81800000
 O                  4.63275000    3.33875000    4.81800000
 O                  4.63275000    3.33875000    0.00000000
 O                  4.63275000   10.01625000    4.81800000
 O                 13.89825000    3.33875000    0.00000000
 O                 13.89825000   10.01625000    4.81800000
 O                 13.89825000   10.01625000    0.00000000
 O                 13.89825000    3.33875000    4.81800000
 O                  4.63275000    4.14405650    7.22700000
 O                 13.89825000    4.14405650    7.22700000
 O                 13.89825000    9.21094350    2.40900000
 O                 13.89825000    2.53344350    2.40900000
 O                 13.89825000   10.82155650    7.22700000
 O                  4.63275000   10.82155650    7.22700000
 O                  4.63275000    2.53344350    2.40900000
 Si                 7.69592430    5.69457200    8.39488320
 Si                 1.56957570    5.69457200    6.05911680
 Si                 7.69592430    7.66042800    1.24111680
 Si                16.96142430    5.69457200    6.05911680
 Si                10.83507570    7.66042800    1.24111680
 Si                16.96142430    7.66042800    3.57688320
 Si                10.83507570    5.69457200    8.39488320
 Si                10.83507570    0.98292800    3.57688320
 Si                16.96142430   12.37207200    8.39488320
 Si                10.83507570   12.37207200    6.05911680
 Si                16.96142430    0.98292800    1.24111680
 Si                 7.69592430   12.37207200    6.05911680
 Si                 1.56957570    0.98292800    1.24111680
 Si                 7.69592430    0.98292800    3.57688320
 Si                 1.56957570   12.37207200    8.39488320
 Si                 5.89841730    6.31557950    3.25696800
 Si                 3.36708270    6.31557950    1.56103200
 Si                 5.89841730    7.03942050    6.37903200
 Si                15.16391730    6.31557950    1.56103200
 Si                12.63258270    7.03942050    6.37903200
 Si                15.16391730    7.03942050    8.07496800
 Si                12.63258270    6.31557950    3.25696800
 Si                12.63258270    0.36192050    8.07496800
 Si                15.16391730   12.99307950    3.25696800
 Si                12.63258270   12.99307950    1.56103200
 Si                15.16391730    0.36192050    6.37903200
 Si                 5.89841730   12.99307950    1.56103200
 Si                 3.36708270    0.36192050    6.37903200
 Si                 5.89841730    0.36192050    8.07496800
 Si                 3.36708270   12.99307950    3.25696800
 Si                 3.69878760    3.44024800    6.11789640
 Si                 5.56671240    3.44024800    8.33610360
 Si                 3.69878760    9.91475200    3.51810360
 Si                12.96428760    3.44024800    8.33610360
 Si                14.83221240    9.91475200    3.51810360
 Si                12.96428760    9.91475200    1.29989640
 Si                14.83221240    3.44024800    6.11789640
 Si                14.83221240    3.23725200    1.29989640
 Si                12.96428760   10.11774800    6.11789640
 Si                14.83221240   10.11774800    8.33610360
 Si                12.96428760    3.23725200    3.51810360
 Si                 3.69878760   10.11774800    8.33610360
 Si                 5.56671240    3.23725200    3.51810360
 Si                 3.69878760    3.23725200    1.29989640
 Si                 5.56671240   10.11774800    6.11789640
 Tv                18.53100000    0.00000000    0.00000000
 Tv                 0.00000000   13.35500000    0.00000000
 Tv                 0.00000000    0.00000000    9.63600000

