%chk=C:\Users\respondus\Documents\AET-zeolite.chk
# pbepbe/3-21g/auto

Title Card Required

0 1
 O                  2.88895200    1.57461000    6.28050000
 O                  1.31972580    2.24903200    4.27995140
 O                  2.67884640    0.00000000    4.18700000
 O                  3.92963130    2.30511400    3.98602400
 O                  7.02868890    1.59186600    6.28050000
 O                  8.96231700    1.73710400    4.50186240
 O                  7.01227440    0.00000000    4.18700000
 O                  6.54610260    2.56395400    3.88637340
 O                  6.53625390    5.96913800    6.28050000
 O                  5.51527200    7.19000000    4.18700000
 O                  5.06223180    4.61885600    4.56717960
 O                  5.03596860    3.75174200    2.09350000
 O                  0.00000000   12.78094400    6.28050000
 O                  0.00000000    0.00000000    4.18700000
 Si                 2.70510960    1.53003200    4.68357820
 Si                 7.38980790    1.47107400    4.71707420
 Si                 6.13574010    5.80664400    4.73047260
 Si                 5.14102140    3.30596200    0.55017180
 Si                 0.00000000   12.84853000    4.67520420
 O                 29.94004800   12.80539000    2.09350000
 O                  2.88895200   12.80539000    2.09350000
 O                 29.94004800    1.57461000    6.28050000
 O                 19.30345200    8.76461000    6.28050000
 O                 13.52554800    5.61539000    2.09350000
 O                 19.30345200    5.61539000    2.09350000
 O                 13.52554800    8.76461000    6.28050000
 O                 31.50927420   12.13096800    0.09295140
 O                  1.31972580   12.13096800    4.09404860
 O                 31.50927420    2.24903200    8.28104860
 O                 31.50927420   12.13096800    4.09404860
 O                  1.31972580    2.24903200    8.28104860
 O                 31.50927420    2.24903200    4.27995140
 O                  1.31972580   12.13096800    0.09295140
 O                 17.73422580    9.43903200    4.27995140
 O                 15.09477420    4.94096800    0.09295140
 O                 17.73422580    4.94096800    4.09404860
 O                 15.09477420    9.43903200    8.28104860
 O                 15.09477420    4.94096800    4.09404860
 O                 17.73422580    9.43903200    8.28104860
 O                 15.09477420    9.43903200    4.27995140
 O                 17.73422580    4.94096800    0.09295140
 O                 30.15015360    0.00000000    0.00000000
 O                 30.15015360    0.00000000    4.18700000
 O                  2.67884640    0.00000000    0.00000000
 O                 19.09334640    7.19000000    4.18700000
 O                 13.73565360    7.19000000    0.00000000
 O                 13.73565360    7.19000000    4.18700000
 O                 19.09334640    7.19000000    0.00000000
 O                 28.89936870   12.07488600    8.17302400
 O                  3.92963130   12.07488600    4.38797600
 O                 28.89936870    2.30511400    0.20097600
 O                 28.89936870   12.07488600    4.38797600
 O                  3.92963130    2.30511400    0.20097600
 O                 28.89936870    2.30511400    3.98602400
 O                  3.92963130   12.07488600    8.17302400
 O                 20.34413130    9.49511400    3.98602400
 O                 12.48486870    4.88488600    8.17302400
 O                 20.34413130    4.88488600    4.38797600
 O                 12.48486870    9.49511400    0.20097600
 O                 12.48486870    4.88488600    4.38797600
 O                 20.34413130    9.49511400    0.20097600
 O                 12.48486870    9.49511400    3.98602400
 O                 20.34413130    4.88488600    8.17302400
 O                 25.80031110   12.78813400    2.09350000
 O                  7.02868890   12.78813400    2.09350000
 O                 25.80031110    1.59186600    6.28050000
 O                 23.44318890    8.78186600    6.28050000
 O                  9.38581110    5.59813400    2.09350000
 O                 23.44318890    5.59813400    2.09350000
 O                  9.38581110    8.78186600    6.28050000
 O                 23.86668300   12.64289600    0.31486240
 O                  8.96231700   12.64289600    3.87213760
 O                 23.86668300    1.73710400    8.05913760
 O                 23.86668300   12.64289600    3.87213760
 O                  8.96231700    1.73710400    8.05913760
 O                 23.86668300    1.73710400    4.50186240
 O                  8.96231700   12.64289600    0.31486240
 O                 25.37681700    8.92710400    4.50186240
 O                  7.45218300    5.45289600    0.31486240
 O                 25.37681700    5.45289600    3.87213760
 O                  7.45218300    8.92710400    8.05913760
 O                  7.45218300    5.45289600    3.87213760
 O                 25.37681700    8.92710400    8.05913760
 O                  7.45218300    8.92710400    4.50186240
 O                 25.37681700    5.45289600    0.31486240
 O                 25.81672560    0.00000000    0.00000000
 O                 25.81672560    0.00000000    4.18700000
 O                  7.01227440    0.00000000    0.00000000
 O                 23.42677440    7.19000000    4.18700000
 O                  9.40222560    7.19000000    0.00000000
 O                  9.40222560    7.19000000    4.18700000
 O                 23.42677440    7.19000000    0.00000000
 O                 26.28289740   11.81604600    8.07337340
 O                  6.54610260   11.81604600    4.48762660
 O                 26.28289740    2.56395400    0.30062660
 O                 26.28289740   11.81604600    4.48762660
 O                  6.54610260    2.56395400    0.30062660
 O                 26.28289740    2.56395400    3.88637340
 O                  6.54610260   11.81604600    8.07337340
 O                 22.96060260    9.75395400    3.88637340
 O                  9.86839740    4.62604600    8.07337340
 O                 22.96060260    4.62604600    4.48762660
 O                  9.86839740    9.75395400    0.30062660
 O                  9.86839740    4.62604600    4.48762660
 O                 22.96060260    9.75395400    0.30062660
 O                  9.86839740    9.75395400    3.88637340
 O                 22.96060260    4.62604600    8.07337340
 O                 26.29274610    8.41086200    2.09350000
 O                  6.53625390    8.41086200    2.09350000
 O                 26.29274610    5.96913800    6.28050000
 O                 22.95075390   13.15913800    6.28050000
 O                  9.87824610    1.22086200    2.09350000
 O                 22.95075390    1.22086200    2.09350000
 O                  9.87824610   13.15913800    6.28050000
 O                 27.31372800    7.19000000    0.00000000
 O                 27.31372800    7.19000000    4.18700000
 O                  5.51527200    7.19000000    0.00000000
 O                 21.92977200    0.00000000    4.18700000
 O                 10.89922800    0.00000000    0.00000000
 O                 10.89922800    0.00000000    4.18700000
 O                 21.92977200    0.00000000    0.00000000
 O                 27.76676820    9.76114400    0.38017960
 O                  5.06223180    9.76114400    3.80682040
 O                 27.76676820    4.61885600    7.99382040
 O                 27.76676820    9.76114400    3.80682040
 O                  5.06223180    4.61885600    7.99382040
 O                 27.76676820    4.61885600    4.56717960
 O                  5.06223180    9.76114400    0.38017960
 O                 21.47673180   11.80885600    4.56717960
 O                 11.35226820    2.57114400    0.38017960
 O                 21.47673180    2.57114400    3.80682040
 O                 11.35226820   11.80885600    7.99382040
 O                 11.35226820    2.57114400    3.80682040
 O                 21.47673180   11.80885600    7.99382040
 O                 11.35226820   11.80885600    4.56717960
 O                 21.47673180    2.57114400    0.38017960
 O                 27.79303140   10.62825800    6.28050000
 O                  5.03596860   10.62825800    6.28050000
 O                 27.79303140    3.75174200    2.09350000
 O                 21.45046860   10.94174200    2.09350000
 O                 11.37853140    3.43825800    6.28050000
 O                 21.45046860    3.43825800    6.28050000
 O                 11.37853140   10.94174200    2.09350000
 O                  0.00000000    1.59905600    2.09350000
 O                 16.41450000    5.59094400    6.28050000
 O                 16.41450000    8.78905600    2.09350000
 O                  0.00000000    0.00000000    0.00000000
 O                 16.41450000    7.19000000    4.18700000
 O                 16.41450000    7.19000000    0.00000000
 Si                30.12389040   12.84996800    0.49657820
 Si                 2.70510960   12.84996800    3.69042180
 Si                30.12389040    1.53003200    7.87742180
 Si                30.12389040   12.84996800    3.69042180
 Si                 2.70510960    1.53003200    7.87742180
 Si                30.12389040    1.53003200    4.68357820
 Si                 2.70510960   12.84996800    0.49657820
 Si                19.11960960    8.72003200    4.68357820
 Si                13.70939040    5.65996800    0.49657820
 Si                19.11960960    5.65996800    3.69042180
 Si                13.70939040    8.72003200    7.87742180
 Si                13.70939040    5.65996800    3.69042180
 Si                19.11960960    8.72003200    7.87742180
 Si                13.70939040    8.72003200    4.68357820
 Si                19.11960960    5.65996800    0.49657820
 Si                25.43919210   12.90892600    0.53007420
 Si                 7.38980790   12.90892600    3.65692580
 Si                25.43919210    1.47107400    7.84392580
 Si                25.43919210   12.90892600    3.65692580
 Si                 7.38980790    1.47107400    7.84392580
 Si                25.43919210    1.47107400    4.71707420
 Si                 7.38980790   12.90892600    0.53007420
 Si                23.80430790    8.66107400    4.71707420
 Si                 9.02469210    5.71892600    0.53007420
 Si                23.80430790    5.71892600    3.65692580
 Si                 9.02469210    8.66107400    7.84392580
 Si                 9.02469210    5.71892600    3.65692580
 Si                23.80430790    8.66107400    7.84392580
 Si                 9.02469210    8.66107400    4.71707420
 Si                23.80430790    5.71892600    0.53007420
 Si                26.69325990    8.57335600    0.54347260
 Si                 6.13574010    8.57335600    3.64352740
 Si                26.69325990    5.80664400    7.83052740
 Si                26.69325990    8.57335600    3.64352740
 Si                 6.13574010    5.80664400    7.83052740
 Si                26.69325990    5.80664400    4.73047260
 Si                 6.13574010    8.57335600    0.54347260
 Si                22.55024010   12.99664400    4.73047260
 Si                10.27875990    1.38335600    0.54347260
 Si                22.55024010    1.38335600    3.64352740
 Si                10.27875990   12.99664400    7.83052740
 Si                10.27875990    1.38335600    3.64352740
 Si                22.55024010   12.99664400    7.83052740
 Si                10.27875990   12.99664400    4.73047260
 Si                22.55024010    1.38335600    0.54347260
 Si                27.68797860   11.07403800    4.73717180
 Si                 5.14102140   11.07403800    7.82382820
 Si                27.68797860    3.30596200    3.63682820
 Si                27.68797860   11.07403800    7.82382820
 Si                 5.14102140    3.30596200    3.63682820
 Si                27.68797860    3.30596200    0.55017180
 Si                 5.14102140   11.07403800    4.73717180
 Si                21.55552140   10.49596200    0.55017180
 Si                11.27347860    3.88403800    4.73717180
 Si                21.55552140    3.88403800    7.82382820
 Si                11.27347860   10.49596200    3.63682820
 Si                11.27347860    3.88403800    7.82382820
 Si                21.55552140   10.49596200    3.63682820
 Si                11.27347860   10.49596200    0.55017180
 Si                21.55552140    3.88403800    4.73717180
 Si                 0.00000000    1.53147000    0.48820420
 Si                 0.00000000    1.53147000    3.69879580
 Si                 0.00000000   12.84853000    7.88579580
 Si                16.41450000    5.65853000    4.67520420
 Si                16.41450000    8.72147000    0.48820420
 Si                16.41450000    8.72147000    3.69879580
 Si                16.41450000    5.65853000    7.88579580
 Tv                32.82900000    0.00000000    0.00000000
 Tv                 0.00000000   14.38000000    0.00000000
 Tv                 0.00000000    0.00000000    8.37400000

