%chk=C:\Users\respondus\Documents\AFI-zeolite.chk
# pbepbe/3-21g/auto

Title Card Required

0 1
 O                  4.00752550    3.99151109    0.00000000
 O                  2.55315555    4.42219513    2.14500000
 O                  4.35550500    2.51465198    2.14500000
 O                  5.11184190    5.03169888    2.14500000
 Si                 4.00752550    3.99151109    1.60789200
 O                 -1.45298725    5.46637443    0.00000000
 O                  8.36648725    1.47486335    0.00000000
 O                  2.90597450    7.98302217    0.00000000
 O                  8.36648725    6.50815883    0.00000000
 O                 -1.45298725   10.49966991    0.00000000
 O                  5.46051275    6.50815883    4.29000000
 O                 -2.90597450    7.98302217    4.29000000
 O                  5.46051275    1.47486335    4.29000000
 O                  1.45298725    5.46637443    4.29000000
 O                  9.81947450    3.99151109    4.29000000
 O                  1.45298725   10.49966991    4.29000000
 O                 -2.55315555    4.42219513    2.14500000
 O                  8.72068890    0.00000000    2.14500000
 O                  4.36034445    7.55233813    2.14500000
 O                 -4.36034445    7.55233813    2.14500000
 O                  5.10631110    0.00000000    2.14500000
 O                  4.36034445    7.55233813    6.43500000
 O                 -4.36034445    7.55233813    6.43500000
 O                  5.10631110    0.00000000    6.43500000
 O                  2.55315555    4.42219513    6.43500000
 O                 -2.55315555    4.42219513    6.43500000
 O                  8.72068890    0.00000000    6.43500000
 O                  0.00000000    5.02930397    2.14500000
 O                  9.47149500    2.51465198    2.14500000
 O                  2.55799500    9.45988127    2.14500000
 O                  6.91350000    6.94522929    2.14500000
 O                 -2.55799500    9.45988127    2.14500000
 O                  2.55799500    9.45988127    6.43500000
 O                  6.91350000    6.94522929    6.43500000
 O                 -2.55799500    9.45988127    6.43500000
 O                  4.35550500    2.51465198    6.43500000
 O                  0.00000000    5.02930397    6.43500000
 O                  9.47149500    2.51465198    6.43500000
 O                 -1.80165810    6.94283438    2.14500000
 O                  6.91350000    1.91113551    2.14500000
 O                  1.80165810    6.94283438    2.14500000
 O                  8.71515810    5.03169888    2.14500000
 O                  0.00000000   10.06339775    2.14500000
 O                  1.80165810    6.94283438    6.43500000
 O                  8.71515810    5.03169888    6.43500000
 O                  0.00000000   10.06339775    6.43500000
 O                  5.11184190    5.03169888    6.43500000
 O                 -1.80165810    6.94283438    6.43500000
 O                  6.91350000    1.91113551    6.43500000
 Si                -1.45298725    5.46637443    1.60789200
 Si                 8.36648725    1.47486335    1.60789200
 Si                 2.90597450    7.98302217    1.60789200
 Si                 8.36648725    6.50815883    1.60789200
 Si                -1.45298725   10.49966991    1.60789200
 Si                 5.46051275    6.50815883    2.68210800
 Si                -2.90597450    7.98302217    2.68210800
 Si                 5.46051275    1.47486335    2.68210800
 Si                 1.45298725    5.46637443    2.68210800
 Si                 9.81947450    3.99151109    2.68210800
 Si                 1.45298725   10.49966991    2.68210800
 Si                 2.90597450    7.98302217    6.97210800
 Si                 8.36648725    6.50815883    6.97210800
 Si                -1.45298725   10.49966991    6.97210800
 Si                 4.00752550    3.99151109    6.97210800
 Si                -1.45298725    5.46637443    6.97210800
 Si                 8.36648725    1.47486335    6.97210800
 Si                 1.45298725    5.46637443    5.89789200
 Si                 9.81947450    3.99151109    5.89789200
 Si                 1.45298725   10.49966991    5.89789200
 Si                 5.46051275    6.50815883    5.89789200
 Si                -2.90597450    7.98302217    5.89789200
 Si                 5.46051275    1.47486335    5.89789200
 Tv                13.82700000    0.00000000    0.00000000
 Tv                -6.91350000   11.97453326    0.00000000
 Tv                 0.00000000    0.00000000    8.58000000

