%chk=C:\Users\respondus\Documents\AHT-zeolite.chk
# pbepbe/3-21g/auto

Title Card Required

0 1
 O                  1.32037840    6.85478760    4.28161650
 O                  2.67866240    4.60300000    4.29450000
 O                  2.65970960    6.11462520    2.14725000
 O                  3.94850000    6.90450000    4.29450000
 O                  0.00000000    3.08032760    2.14725000
 O                  0.00000000    4.60300000    4.29450000
 Si                 2.65497140    6.11830760    3.75511080
 Si                 0.00000000    3.08953360    3.75425190
 O                 14.47362160    2.35121240    8.57611650
 O                  1.32037840    2.35121240    4.30738350
 O                 14.47362160    6.85478760    0.01288350
 O                 14.47362160    2.35121240    4.30738350
 O                  1.32037840    6.85478760    0.01288350
 O                 14.47362160    6.85478760    4.28161650
 O                  1.32037840    2.35121240    8.57611650
 O                  9.21737840    2.25178760    4.28161650
 O                  6.57662160    6.95421240    8.57611650
 O                  9.21737840    6.95421240    4.30738350
 O                  6.57662160    2.25178760    0.01288350
 O                  6.57662160    6.95421240    4.30738350
 O                  9.21737840    2.25178760    0.01288350
 O                  6.57662160    2.25178760    4.28161650
 O                  9.21737840    6.95421240    8.57611650
 O                 13.11533760    4.60300000    0.00000000
 O                 13.11533760    4.60300000    4.29450000
 O                  2.67866240    4.60300000    0.00000000
 O                 10.57566240    0.00000000    4.29450000
 O                  5.21833760    0.00000000    0.00000000
 O                  5.21833760    0.00000000    4.29450000
 O                 10.57566240    0.00000000    0.00000000
 O                 13.13429040    3.09137480    6.44175000
 O                  2.65970960    3.09137480    6.44175000
 O                 13.13429040    6.11462520    2.14725000
 O                 10.55670960    1.51162520    2.14725000
 O                  5.23729040    7.69437480    6.44175000
 O                 10.55670960    7.69437480    6.44175000
 O                  5.23729040    1.51162520    2.14725000
 O                 11.84550000    2.30150000    0.00000000
 O                  3.94850000    2.30150000    4.29450000
 O                 11.84550000    6.90450000    0.00000000
 O                 11.84550000    2.30150000    4.29450000
 O                  3.94850000    6.90450000    0.00000000
 O                 11.84550000    6.90450000    4.29450000
 O                  3.94850000    2.30150000    0.00000000
 O                  0.00000000    6.12567240    6.44175000
 O                  7.89700000    7.68332760    2.14725000
 O                  7.89700000    1.52267240    6.44175000
 O                  0.00000000    4.60300000    0.00000000
 O                  7.89700000    0.00000000    4.29450000
 O                  7.89700000    0.00000000    0.00000000
 Si                13.13902860    3.08769240    8.04961080
 Si                 2.65497140    3.08769240    4.83388920
 Si                13.13902860    6.11830760    0.53938920
 Si                13.13902860    3.08769240    4.83388920
 Si                 2.65497140    6.11830760    0.53938920
 Si                13.13902860    6.11830760    3.75511080
 Si                 2.65497140    3.08769240    8.04961080
 Si                10.55197140    1.51530760    3.75511080
 Si                 5.24202860    7.69069240    8.04961080
 Si                10.55197140    7.69069240    4.83388920
 Si                 5.24202860    1.51530760    0.53938920
 Si                 5.24202860    7.69069240    4.83388920
 Si                10.55197140    1.51530760    0.53938920
 Si                 5.24202860    1.51530760    3.75511080
 Si                10.55197140    7.69069240    8.04961080
 Si                 0.00000000    6.11646640    8.04875190
 Si                 0.00000000    6.11646640    4.83474810
 Si                 0.00000000    3.08953360    0.54024810
 Si                 7.89700000    7.69253360    3.75425190
 Si                 7.89700000    1.51346640    8.04875190
 Si                 7.89700000    1.51346640    4.83474810
 Si                 7.89700000    7.69253360    0.54024810
 Tv                15.79400000    0.00000000    0.00000000
 Tv                 0.00000000    9.20600000    0.00000000
 Tv                 0.00000000    0.00000000    8.58900000

