%chk=C:\Users\respondus\Documents\antimonite.chk
# pbepbe/3-21g/auto

Title Card Required

0 1
 Al                 0.00000000    0.00000000    0.00000000
 Sb                 1.53367500    1.53367500    1.53367500
 Al                 0.00000000    3.06735000    3.06735000
 Al                 3.06735000    0.00000000    3.06735000
 Al                 3.06735000    3.06735000    0.00000000
 Sb                 1.53367500    4.60102500    4.60102500
 Sb                 4.60102500    4.60102500    1.53367500
 Sb                 4.60102500    1.53367500    4.60102500
 Tv                 6.13470000    0.00000000    0.00000000
 Tv                 0.00000000    6.13470000    0.00000000
 Tv                 0.00000000    0.00000000    6.13470000

