%chk=C:\Users\respondus\Documents\APC-zeolite.chk
# pbepbe/3-21g/auto

Title Card Required

0 1
 O                  2.21383040    9.67800000    5.19600000
 O                  2.24800000    9.27152400    2.59800000
 O                  1.85864640    7.24882200    4.23889680
 O                  0.00000000    9.08183520    3.92817600
 O                  2.24800000    5.23579800    2.59800000
 O                  2.24800000    4.83900000    0.00000000
 O                  4.49600000    5.40613080    1.24288320
 Si                 1.58439040    8.81278680    3.99052800
 Si                 2.91160960    5.68098600    1.19923680
 O                  2.28216960    9.67800000    0.00000000
 O                  6.77816960    9.67800000    5.19600000
 O                  6.70983040    9.67800000    0.00000000
 O                  6.70983040    0.00000000    5.19600000
 O                  6.77816960    0.00000000    0.00000000
 O                  2.28216960    0.00000000    5.19600000
 O                  2.21383040    0.00000000    0.00000000
 O                  2.24800000   10.08447600    7.79400000
 O                  6.74400000   10.08447600    7.79400000
 O                  6.74400000    9.27152400    2.59800000
 O                  6.74400000   18.94952400    2.59800000
 O                  6.74400000    0.40647600    7.79400000
 O                  2.24800000    0.40647600    7.79400000
 O                  2.24800000   18.94952400    2.59800000
 O                  2.63735360   12.10717800    9.43489680
 O                  1.85864640   12.10717800    6.15310320
 O                  2.63735360    7.24882200    0.95710320
 O                  7.13335360   12.10717800    6.15310320
 O                  6.35464640    7.24882200    0.95710320
 O                  7.13335360    7.24882200    4.23889680
 O                  6.35464640   12.10717800    9.43489680
 O                  6.35464640   16.92682200    4.23889680
 O                  7.13335360    2.42917800    9.43489680
 O                  6.35464640    2.42917800    6.15310320
 O                  7.13335360   16.92682200    0.95710320
 O                  2.63735360    2.42917800    6.15310320
 O                  1.85864640   16.92682200    0.95710320
 O                  2.63735360   16.92682200    4.23889680
 O                  1.85864640    2.42917800    9.43489680
 O                  4.49600000   10.27416480    9.12417600
 O                  0.00000000   10.27416480    6.46382400
 O                  4.49600000    9.08183520    1.26782400
 O                  4.49600000   18.75983520    3.92817600
 O                  0.00000000    0.59616480    9.12417600
 O                  4.49600000    0.59616480    6.46382400
 O                  0.00000000   18.75983520    1.26782400
 O                  2.24800000   14.12020200    7.79400000
 O                  6.74400000   14.12020200    7.79400000
 O                  6.74400000    5.23579800    2.59800000
 O                  6.74400000   14.91379800    2.59800000
 O                  6.74400000    4.44220200    7.79400000
 O                  2.24800000    4.44220200    7.79400000
 O                  2.24800000   14.91379800    2.59800000
 O                  2.24800000   14.51700000    5.19600000
 O                  2.24800000   14.51700000    0.00000000
 O                  2.24800000    4.83900000    5.19600000
 O                  6.74400000   14.51700000    0.00000000
 O                  6.74400000    4.83900000    5.19600000
 O                  6.74400000    4.83900000    0.00000000
 O                  6.74400000   14.51700000    5.19600000
 O                  0.00000000   13.94986920    6.43888320
 O                  4.49600000   13.94986920    9.14911680
 O                  0.00000000    5.40613080    3.95311680
 O                  0.00000000   15.08413080    1.24288320
 O                  4.49600000    4.27186920    6.43888320
 O                  0.00000000    4.27186920    9.14911680
 O                  4.49600000   15.08413080    3.95311680
 Si                 2.91160960   10.54321320    9.18652800
 Si                 1.58439040   10.54321320    6.40147200
 Si                 2.91160960    8.81278680    1.20547200
 Si                 7.40760960   10.54321320    6.40147200
 Si                 6.08039040    8.81278680    1.20547200
 Si                 7.40760960    8.81278680    3.99052800
 Si                 6.08039040   10.54321320    9.18652800
 Si                 6.08039040   18.49078680    3.99052800
 Si                 7.40760960    0.86521320    9.18652800
 Si                 6.08039040    0.86521320    6.40147200
 Si                 7.40760960   18.49078680    1.20547200
 Si                 2.91160960    0.86521320    6.40147200
 Si                 1.58439040   18.49078680    1.20547200
 Si                 2.91160960   18.49078680    3.99052800
 Si                 1.58439040    0.86521320    9.18652800
 Si                 1.58439040   13.67501400    6.39523680
 Si                 2.91160960   13.67501400    9.19276320
 Si                 1.58439040    5.68098600    3.99676320
 Si                 6.08039040   13.67501400    9.19276320
 Si                 7.40760960    5.68098600    3.99676320
 Si                 6.08039040    5.68098600    1.19923680
 Si                 7.40760960   13.67501400    6.39523680
 Si                 7.40760960   15.35898600    1.19923680
 Si                 6.08039040    3.99701400    6.39523680
 Si                 7.40760960    3.99701400    9.19276320
 Si                 6.08039040   15.35898600    3.99676320
 Si                 1.58439040    3.99701400    9.19276320
 Si                 2.91160960   15.35898600    3.99676320
 Si                 1.58439040   15.35898600    1.19923680
 Si                 2.91160960    3.99701400    6.39523680
 Tv                 8.99200000    0.00000000    0.00000000
 Tv                 0.00000000   19.35600000    0.00000000
 Tv                 0.00000000    0.00000000   10.39200000

