%chk=C:\Users\respondus\Documents\AST-zeolite.chk
# pbepbe/3-21g/auto

Title Card Required

0 1
 O                  1.85967600    1.85967600    0.00000000
 O                  2.47684320    2.47684320    2.47684320
 Si                 1.54904880    1.54904880    1.54904880
 Si                10.21800000    3.40600000    3.40600000
 O                 11.76432400    1.85967600    0.00000000
 O                 11.76432400   11.76432400    0.00000000
 O                  1.85967600   11.76432400    0.00000000
 O                  0.00000000    1.85967600    1.85967600
 O                 11.76432400    0.00000000    1.85967600
 O                  0.00000000   11.76432400    1.85967600
 O                  1.85967600    0.00000000    1.85967600
 O                  0.00000000   11.76432400   11.76432400
 O                  1.85967600    0.00000000   11.76432400
 O                  0.00000000    1.85967600   11.76432400
 O                 11.76432400    0.00000000   11.76432400
 O                  1.85967600    8.67167600    6.81200000
 O                 11.76432400    8.67167600    6.81200000
 O                 11.76432400    4.95232400    6.81200000
 O                  1.85967600    4.95232400    6.81200000
 O                  0.00000000    8.67167600    8.67167600
 O                 11.76432400    6.81200000    8.67167600
 O                  0.00000000    4.95232400    8.67167600
 O                  1.85967600    6.81200000    8.67167600
 O                  0.00000000    4.95232400    4.95232400
 O                  1.85967600    6.81200000    4.95232400
 O                  0.00000000    8.67167600    4.95232400
 O                 11.76432400    6.81200000    4.95232400
 O                  8.67167600    1.85967600    6.81200000
 O                  4.95232400    1.85967600    6.81200000
 O                  4.95232400   11.76432400    6.81200000
 O                  8.67167600   11.76432400    6.81200000
 O                  6.81200000    1.85967600    8.67167600
 O                  4.95232400    0.00000000    8.67167600
 O                  6.81200000   11.76432400    8.67167600
 O                  8.67167600    0.00000000    8.67167600
 O                  6.81200000   11.76432400    4.95232400
 O                  8.67167600    0.00000000    4.95232400
 O                  6.81200000    1.85967600    4.95232400
 O                  4.95232400    0.00000000    4.95232400
 O                  8.67167600    8.67167600    0.00000000
 O                  4.95232400    8.67167600    0.00000000
 O                  4.95232400    4.95232400    0.00000000
 O                  8.67167600    4.95232400    0.00000000
 O                  6.81200000    8.67167600    1.85967600
 O                  4.95232400    6.81200000    1.85967600
 O                  6.81200000    4.95232400    1.85967600
 O                  8.67167600    6.81200000    1.85967600
 O                  6.81200000    4.95232400   11.76432400
 O                  8.67167600    6.81200000   11.76432400
 O                  6.81200000    8.67167600   11.76432400
 O                  4.95232400    6.81200000   11.76432400
 O                 11.14715680    2.47684320    2.47684320
 O                 11.14715680   11.14715680    2.47684320
 O                  2.47684320   11.14715680    2.47684320
 O                  2.47684320   11.14715680   11.14715680
 O                  2.47684320    2.47684320   11.14715680
 O                 11.14715680    2.47684320   11.14715680
 O                 11.14715680   11.14715680   11.14715680
 O                  2.47684320    9.28884320    9.28884320
 O                 11.14715680    9.28884320    9.28884320
 O                 11.14715680    4.33515680    9.28884320
 O                  2.47684320    4.33515680    9.28884320
 O                  2.47684320    4.33515680    4.33515680
 O                  2.47684320    9.28884320    4.33515680
 O                 11.14715680    9.28884320    4.33515680
 O                 11.14715680    4.33515680    4.33515680
 O                  9.28884320    2.47684320    9.28884320
 O                  4.33515680    2.47684320    9.28884320
 O                  4.33515680   11.14715680    9.28884320
 O                  9.28884320   11.14715680    9.28884320
 O                  9.28884320   11.14715680    4.33515680
 O                  9.28884320    2.47684320    4.33515680
 O                  4.33515680    2.47684320    4.33515680
 O                  4.33515680   11.14715680    4.33515680
 O                  9.28884320    9.28884320    2.47684320
 O                  4.33515680    9.28884320    2.47684320
 O                  4.33515680    4.33515680    2.47684320
 O                  9.28884320    4.33515680    2.47684320
 O                  9.28884320    4.33515680   11.14715680
 O                  9.28884320    9.28884320   11.14715680
 O                  4.33515680    9.28884320   11.14715680
 O                  4.33515680    4.33515680   11.14715680
 Si                12.07495120    1.54904880    1.54904880
 Si                12.07495120   12.07495120    1.54904880
 Si                 1.54904880   12.07495120    1.54904880
 Si                 1.54904880   12.07495120   12.07495120
 Si                 1.54904880    1.54904880   12.07495120
 Si                12.07495120    1.54904880   12.07495120
 Si                12.07495120   12.07495120   12.07495120
 Si                 1.54904880    8.36104880    8.36104880
 Si                12.07495120    8.36104880    8.36104880
 Si                12.07495120    5.26295120    8.36104880
 Si                 1.54904880    5.26295120    8.36104880
 Si                 1.54904880    5.26295120    5.26295120
 Si                 1.54904880    8.36104880    5.26295120
 Si                12.07495120    8.36104880    5.26295120
 Si                12.07495120    5.26295120    5.26295120
 Si                 8.36104880    1.54904880    8.36104880
 Si                 5.26295120    1.54904880    8.36104880
 Si                 5.26295120   12.07495120    8.36104880
 Si                 8.36104880   12.07495120    8.36104880
 Si                 8.36104880   12.07495120    5.26295120
 Si                 8.36104880    1.54904880    5.26295120
 Si                 5.26295120    1.54904880    5.26295120
 Si                 5.26295120   12.07495120    5.26295120
 Si                 8.36104880    8.36104880    1.54904880
 Si                 5.26295120    8.36104880    1.54904880
 Si                 5.26295120    5.26295120    1.54904880
 Si                 8.36104880    5.26295120    1.54904880
 Si                 8.36104880    5.26295120   12.07495120
 Si                 8.36104880    8.36104880   12.07495120
 Si                 5.26295120    8.36104880   12.07495120
 Si                 5.26295120    5.26295120   12.07495120
 Si                10.21800000   10.21800000    3.40600000
 Si                 3.40600000   10.21800000    3.40600000
 Si                 3.40600000    3.40600000    3.40600000
 Si                10.21800000   10.21800000   10.21800000
 Si                 3.40600000   10.21800000   10.21800000
 Si                 3.40600000    3.40600000   10.21800000
 Si                10.21800000    3.40600000   10.21800000
 Tv                13.62400000    0.00000000    0.00000000
 Tv                 0.00000000   13.62400000    0.00000000
 Tv                 0.00000000    0.00000000   13.62400000

