%chk=C:\Users\respondus\Documents\ASV-zeolite.chk
# pbepbe/3-21g/auto

Title Card Required

0 1
 O                  0.94459860    5.26858760    4.42345820
 O                  1.72178900    3.60404700    0.00000000
 O                  3.41582120    2.69761400    1.83869990
 Si                 2.19799160    3.73675920    1.55057660
 Si                 0.00000000    4.33700000    3.47975000
 O                  3.40541240    0.94459860    4.42345820
 O                  7.72940140    3.40541240    4.42345820
 O                  5.26858760    7.72940140    4.42345820
 O                  0.94459860    3.40541240    2.53604180
 O                  5.26858760    0.94459860    2.53604180
 O                  7.72940140    5.26858760    2.53604180
 O                  3.40541240    7.72940140    2.53604180
 O                  7.72940140    3.40541240    9.49554180
 O                  5.26858760    7.72940140    9.49554180
 O                  0.94459860    5.26858760    9.49554180
 O                  3.40541240    0.94459860    9.49554180
 O                  7.72940140    5.26858760   11.38295820
 O                  3.40541240    7.72940140   11.38295820
 O                  0.94459860    3.40541240   11.38295820
 O                  5.26858760    0.94459860   11.38295820
 O                  5.06995300    1.72178900    0.00000000
 O                  6.95221100    5.06995300    0.00000000
 O                  3.60404700    6.95221100    0.00000000
 O                  1.72178900    5.06995300    6.95950000
 O                  3.60404700    1.72178900    6.95950000
 O                  6.95221100    3.60404700    6.95950000
 O                  5.06995300    6.95221100    6.95950000
 O                  5.97638600    3.41582120    1.83869990
 O                  5.25817880    5.97638600    1.83869990
 O                  2.69761400    5.25817880    1.83869990
 O                  3.41582120    5.97638600    5.12080010
 O                  2.69761400    3.41582120    5.12080010
 O                  5.25817880    2.69761400    5.12080010
 O                  5.97638600    5.25817880    5.12080010
 O                  5.25817880    5.97638600   12.08030010
 O                  2.69761400    5.25817880   12.08030010
 O                  3.41582120    2.69761400   12.08030010
 O                  5.97638600    3.41582120   12.08030010
 O                  5.25817880    2.69761400    8.79819990
 O                  5.97638600    5.25817880    8.79819990
 O                  3.41582120    5.97638600    8.79819990
 O                  2.69761400    3.41582120    8.79819990
 Si                 4.93724080    2.19799160    1.55057660
 Si                 6.47600840    4.93724080    1.55057660
 Si                 3.73675920    6.47600840    1.55057660
 Si                 2.19799160    4.93724080    5.40892340
 Si                 3.73675920    2.19799160    5.40892340
 Si                 6.47600840    3.73675920    5.40892340
 Si                 4.93724080    6.47600840    5.40892340
 Si                 6.47600840    4.93724080   12.36842340
 Si                 3.73675920    6.47600840   12.36842340
 Si                 2.19799160    3.73675920   12.36842340
 Si                 4.93724080    2.19799160   12.36842340
 Si                 6.47600840    3.73675920    8.51007660
 Si                 4.93724080    6.47600840    8.51007660
 Si                 2.19799160    4.93724080    8.51007660
 Si                 3.73675920    2.19799160    8.51007660
 Si                 4.33700000    0.00000000    3.47975000
 Si                 0.00000000    4.33700000   10.43925000
 Si                 4.33700000    0.00000000   10.43925000
 Tv                 8.67400000    0.00000000    0.00000000
 Tv                 0.00000000    8.67400000    0.00000000
 Tv                 0.00000000    0.00000000   13.91900000

