%chk=C:\Users\respondus\Documents\ATN-zeolite.chk
# pbepbe/3-21g/auto

Title Card Required

0 1
 O                  4.66242570    1.87307430    3.94200000
 O                  6.53550000    3.16187490    0.00000000
 O                  4.07553780    4.07553780    0.00000000
 Si                 4.98005100    2.74621710    0.00000000
 O                 11.19792570    4.66242570    3.94200000
 O                  8.40857430   11.19792570    3.94200000
 O                  1.87307430    8.40857430    3.94200000
 O                  4.66242570   11.19792570    1.31400000
 O                  1.87307430    4.66242570    1.31400000
 O                  8.40857430    1.87307430    1.31400000
 O                 11.19792570    8.40857430    1.31400000
 O                  8.40857430   11.19792570    1.31400000
 O                  1.87307430    8.40857430    1.31400000
 O                  4.66242570    1.87307430    1.31400000
 O                 11.19792570    4.66242570    1.31400000
 O                  8.40857430    1.87307430    3.94200000
 O                 11.19792570    8.40857430    3.94200000
 O                  4.66242570   11.19792570    3.94200000
 O                  1.87307430    4.66242570    3.94200000
 O                  9.90912510    6.53550000    0.00000000
 O                  6.53550000    9.90912510    0.00000000
 O                  3.16187490    6.53550000    0.00000000
 O                  0.00000000    9.69737490    2.62800000
 O                  3.37362510    0.00000000    2.62800000
 O                  0.00000000    3.37362510    2.62800000
 O                  9.69737490    0.00000000    2.62800000
 O                  8.99546220    4.07553780    0.00000000
 O                  8.99546220    8.99546220    0.00000000
 O                  4.07553780    8.99546220    0.00000000
 O                 10.61103780   10.61103780    2.62800000
 O                  2.45996220   10.61103780    2.62800000
 O                  2.45996220    2.45996220    2.62800000
 O                 10.61103780    2.45996220    2.62800000
 Si                10.32478290    4.98005100    0.00000000
 Si                 8.09094900   10.32478290    0.00000000
 Si                 2.74621710    8.09094900    0.00000000
 Si                 4.98005100   10.32478290    0.00000000
 Si                 2.74621710    4.98005100    0.00000000
 Si                 8.09094900    2.74621710    0.00000000
 Si                10.32478290    8.09094900    0.00000000
 Si                11.51555100    9.28171710    2.62800000
 Si                 3.78928290   11.51555100    2.62800000
 Si                 1.55544900    3.78928290    2.62800000
 Si                 9.28171710    1.55544900    2.62800000
 Si                11.51555100    3.78928290    2.62800000
 Si                 9.28171710   11.51555100    2.62800000
 Si                 1.55544900    9.28171710    2.62800000
 Si                 3.78928290    1.55544900    2.62800000
 Tv                13.07100000    0.00000000    0.00000000
 Tv                 0.00000000   13.07100000    0.00000000
 Tv                 0.00000000    0.00000000    5.25600000

