%chk=C:\Users\respondus\Documents\ATV-zeolite.chk
# pbepbe/3-21g/auto

Title Card Required

0 1
 O                  2.14475000    1.91387500    4.83050000
 O                  2.14303420    2.51406620    2.27130110
 O                  2.14475000    0.00000000    3.02679130
 O                  0.00000000    1.47444930    3.37941780
 O                  4.28950000    3.82775000    1.51870920
 O                  2.14475000    3.82775000    0.00000000
 Si                 1.60770460    1.47444930    3.37845170
 Si                 2.68179540    3.82775000    1.51484480
 O                  2.14475000   13.39712500    4.83050000
 O                  6.43425000   13.39712500    4.83050000
 O                  6.43425000    1.91387500    4.83050000
 O                  6.43425000    9.56937500    4.83050000
 O                  6.43425000    5.74162500    4.83050000
 O                  2.14475000    5.74162500    4.83050000
 O                  2.14475000    9.56937500    4.83050000
 O                  2.14646580   12.79693380    2.27130110
 O                  2.14303420   12.79693380    7.38969890
 O                  2.14646580    2.51406620    7.38969890
 O                  6.43596580   12.79693380    7.38969890
 O                  6.43253420    2.51406620    7.38969890
 O                  6.43596580    2.51406620    2.27130110
 O                  6.43253420   12.79693380    2.27130110
 O                  6.43253420   10.16956620    2.27130110
 O                  6.43596580    5.14143380    2.27130110
 O                  6.43253420    5.14143380    7.38969890
 O                  6.43596580   10.16956620    7.38969890
 O                  2.14646580    5.14143380    7.38969890
 O                  2.14303420   10.16956620    7.38969890
 O                  2.14646580   10.16956620    2.27130110
 O                  2.14303420    5.14143380    2.27130110
 O                  2.14475000    0.00000000    6.63420870
 O                  6.43425000    0.00000000    6.63420870
 O                  6.43425000    0.00000000    3.02679130
 O                  6.43425000    7.65550000    3.02679130
 O                  6.43425000    7.65550000    6.63420870
 O                  2.14475000    7.65550000    6.63420870
 O                  2.14475000    7.65550000    3.02679130
 O                  4.28950000   13.83655070    3.37941780
 O                  0.00000000   13.83655070    6.28158220
 O                  4.28950000    1.47444930    6.28158220
 O                  4.28950000    9.12994930    3.37941780
 O                  0.00000000    6.18105070    3.37941780
 O                  4.28950000    6.18105070    6.28158220
 O                  0.00000000    9.12994930    6.28158220
 O                  0.00000000   11.48325000    1.51870920
 O                  4.28950000   11.48325000    8.14229080
 O                  0.00000000    3.82775000    8.14229080
 O                  2.14475000   11.48325000    0.00000000
 O                  6.43425000   11.48325000    0.00000000
 O                  6.43425000    3.82775000    0.00000000
 Si                 2.68179540   13.83655070    3.37845170
 Si                 1.60770460   13.83655070    6.28254830
 Si                 2.68179540    1.47444930    6.28254830
 Si                 6.97129540   13.83655070    6.28254830
 Si                 5.89720460    1.47444930    6.28254830
 Si                 6.97129540    1.47444930    3.37845170
 Si                 5.89720460   13.83655070    3.37845170
 Si                 5.89720460    9.12994930    3.37845170
 Si                 6.97129540    6.18105070    3.37845170
 Si                 5.89720460    6.18105070    6.28254830
 Si                 6.97129540    9.12994930    6.28254830
 Si                 2.68179540    6.18105070    6.28254830
 Si                 1.60770460    9.12994930    6.28254830
 Si                 2.68179540    9.12994930    3.37845170
 Si                 1.60770460    6.18105070    3.37845170
 Si                 1.60770460   11.48325000    1.51484480
 Si                 2.68179540   11.48325000    8.14615520
 Si                 1.60770460    3.82775000    8.14615520
 Si                 5.89720460   11.48325000    8.14615520
 Si                 6.97129540    3.82775000    8.14615520
 Si                 5.89720460    3.82775000    1.51484480
 Si                 6.97129540   11.48325000    1.51484480
 Tv                 8.57900000    0.00000000    0.00000000
 Tv                 0.00000000   15.31100000    0.00000000
 Tv                 0.00000000    0.00000000    9.66100000

