%rwf=temp_file_name.rwf
%nosave
%mem=64GB
%nprocshared=20
%chk=temp_file_name.chk
# opt 6-31+g(d) geom=connectivity m062x

Generated from MOL2

0 1
 C    5.648200  -4.240600   4.567600
 C    5.531900  -3.034700   3.752400
 C    4.471600  -2.914100   2.903000
 C    3.609400  -1.883200   2.911800
 C    2.640900  -1.751300   1.974100
 C    2.587600  -0.733500   1.084100
 C    3.584900   0.336600   1.034400
 C    1.559900  -0.688600   0.196200
 C    0.474000   0.070700   0.419600
 C   -0.615500   0.134900  -0.409100
 C   -0.806700   1.253100  -1.171200
 C    0.153300   2.371200  -1.195500
 C   -2.020100   1.464500  -1.977100
 C   -3.019100   0.289300  -2.079100
 C   -3.023100  -0.526500  -0.773200
 C   -1.578600  -1.014000  -0.397600
 C   -1.710500  -1.708700   1.008600
 C   -1.094400  -2.100800  -1.423300
 C    6.523300  -2.064700   3.780200
 C    7.785800  -1.966200   4.429700
 C    8.525800  -0.757500   4.509700
 C    9.837700  -0.572000   5.059000
 C    10.733700   0.404000   4.774600
 C    10.468500   1.525500   3.871400
 C    11.963700   0.307900   5.348600
 C    12.912900  -0.499200   4.841600
 C    14.081300  -0.742900   5.480700
 C    14.462900  -1.976200   5.895500
 C    13.625800  -3.163200   5.662700
 C    15.645500  -2.104000   6.585000
 C    16.590900  -3.034000   6.329800
 C    17.832800  -3.300500   6.944500
 C    18.666200  -4.229200   6.354400
 C    18.296100  -5.062400   5.187500
 C    20.026000  -4.527600   6.832800
 C    20.634700  -3.506900   7.804700
 C    19.572700  -3.205000   8.867400
 C    18.252200  -2.604100   8.231000
 C    18.532000  -1.069600   7.992800
 C    17.185400  -2.789800   9.376800
 H    5.622100  -3.969500   5.623100
 H    4.818800  -4.911600   4.344100
 H    6.590600  -4.740700   4.344100
 H    4.301100  -3.697600   2.164600
 H    3.697800  -1.134900   3.699400
 H    1.858300  -2.508900   1.933200
 H    3.856200   0.627800   2.049100
 H    4.471600  -0.017300   0.508500
 H    3.169500   1.196300   0.508500
 H    1.607700  -1.277400  -0.719800
 H    0.477100   0.671500   1.329000
 H    0.401000   2.659700  -0.174000
 H    1.059700   2.060700  -1.715300
 H   -0.290800   3.220200  -1.715300
 H   -2.547100   2.264200  -1.456700
 H   -1.642100   1.627600  -2.986400
 H   -4.011600   0.730300  -2.172000
 H   -2.642500  -0.374100  -2.857700
 H   -3.335000   0.163100   0.011100
 H   -3.612000  -1.420300  -0.979000
 H   -1.698600  -2.791200   0.881700
 H   -0.876100  -1.407900   1.642100
 H   -2.648200  -1.407900   1.475900
 H   -0.709300  -2.965100  -0.882200
 H   -1.931900  -2.408000  -2.049700
 H   -0.306000  -1.683600  -2.049700
 H    6.255700  -1.204600   3.166500
 H    8.206900  -2.860700   4.888700
 H    8.031900   0.125700   4.104600
 H    10.208800  -1.277200   5.802600
 H    10.256800   2.420700   4.456100
 H    11.341700   1.700100   3.242900
 H    9.609500   1.290500   3.242900
 H    12.194900   0.893300   6.238500
 H    12.728600  -0.973200   3.877500
 H    14.749200   0.097200   5.671200
 H    13.325300  -3.589300   6.619800
 H    12.738600  -2.877000   5.097800
 H    14.193200  -3.902800   5.097800
 H    15.850500  -1.411100   7.401100
 H    16.305600  -3.672100   5.493300
 H    18.380100  -6.116400   5.452400
 H    17.269600  -4.842000   4.894700
 H    18.966300  -4.842000   4.356600
 H    19.921000  -5.456600   7.393200
 H    20.643900  -4.499400   5.935300
 H    21.467000  -3.996900   8.310000
 H    20.802400  -2.586600   7.245200
 H    19.305200  -4.170000   9.297700
 H    20.001700  -2.426800   9.498600
 H    18.624200  -0.563500   8.953800
 H    19.458000  -0.952200   7.430000
 H    17.706900  -0.632900   7.430000
 H    17.022100  -3.853100   9.552300
 H    17.549700  -2.322400   10.291700
 H    16.246900  -2.322400   9.078800

 1 2 1.0 41 1.0 42 1.0 43 1.0
 2 3 1.0 19 2.0
 3 4 2.0 44 1.0
 4 5 1.0 45 1.0
 5 6 2.0 46 1.0
 6 7 1.0 8 1.0
 7 47 1.0 48 1.0 49 1.0
 8 9 2.0 50 1.0
 9 10 1.0 51 1.0
 10 11 2.0 16 1.0
 11 12 1.0 13 1.0
 12 52 1.0 53 1.0 54 1.0
 13 14 1.0 55 1.0 56 1.0
 14 15 1.0 57 1.0 58 1.0
 15 16 1.0 59 1.0 60 1.0
 16 17 1.0 18 1.0
 17 61 1.0 62 1.0 63 1.0
 18 64 1.0 65 1.0 66 1.0
 19 20 1.0 67 1.0
 20 21 2.0 68 1.0
 21 22 1.0 69 1.0
 22 23 2.0 70 1.0
 23 24 1.0 25 1.0
 24 71 1.0 72 1.0 73 1.0
 25 26 2.0 74 1.0
 26 27 1.0 75 1.0
 27 28 2.0 76 1.0
 28 29 1.0 30 1.0
 29 77 1.0 78 1.0 79 1.0
 30 31 2.0 80 1.0
 31 32 1.0 81 1.0
 32 33 2.0 38 1.0
 33 34 1.0 35 1.0
 34 82 1.0 83 1.0 84 1.0
 35 36 1.0 85 1.0 86 1.0
 36 37 1.0 87 1.0 88 1.0
 37 38 1.0 89 1.0 90 1.0
 38 39 1.0 40 1.0
 39 91 1.0 92 1.0 93 1.0
 40 94 1.0 95 1.0 96 1.0
 41
 42
 43
 44
 45
 46
 47
 48
 49
 50
 51
 52
 53
 54
 55
 56
 57
 58
 59
 60
 61
 62
 63
 64
 65
 66
 67
 68
 69
 70
 71
 72
 73
 74
 75
 76
 77
 78
 79
 80
 81
 82
 83
 84
 85
 86
 87
 88
 89
 90
 91
 92
 93
 94
 95
 96

