%chk=C:\Users\respondus\Documents\CaMgC2O6-Dolomite.chk
# pbepbe/3-21g/auto

Title Card Required

0 1
 Ca                 0.00000000    0.00000000    0.00000000
 Mg                 0.00000000    0.00000000    8.00100000
 C                  0.00000000    0.00000000    3.88672578
 O                 -1.12625667    4.01553094    3.90336786
 Ca                 2.40345000    1.38763250    5.33400000
 Ca                 0.00000000    2.77526501   10.66800000
 Mg                 2.40345000    1.38763250   13.33500000
 Mg                 0.00000000    2.77526501    2.66700000
 C                  0.00000000    0.00000000   12.11527422
 C                  2.40345000    1.38763250    9.22072578
 C                  2.40345000    1.38763250    1.44727422
 C                  0.00000000    2.77526501   14.55472578
 C                  0.00000000    2.77526501    6.78127422
 O                 -0.51097347    1.17976516    3.90336786
 O                  1.63723014    3.13049893    3.90336786
 O                  3.52970667    0.14736657   12.09863214
 O                  2.91442347    2.98313236   12.09863214
 O                  0.76621986    1.03239858   12.09863214
 O                  3.68064333    1.24026593    9.23736786
 O                  1.89247653    2.56739766    9.23736786
 O                  1.63723014    0.35523392    9.23736786
 O                  1.12625667    1.53499908    1.43063214
 O                  2.91442347    0.20786735    1.43063214
 O                  3.16966986    2.42003109    1.43063214
 O                  1.27719333    2.62789844   14.57136786
 O                 -0.51097347    3.95503016   14.57136786
 O                 -0.76621986    1.74286643   14.57136786
 O                 -1.27719333    2.92263158    6.76463214
 O                  0.51097347    1.59549985    6.76463214
 O                  0.76621986    3.80766359    6.76463214
 Tv                 4.80690000    0.00000000    0.00000000
 Tv                -2.40345000    4.16289751    0.00000000
 Tv                 0.00000000    0.00000000   16.00200000

