%rwf=temp_file_name.rwf
%nosave
%mem=64GB
%nprocshared=20
%chk=temp_file_name.chk
# opt 6-31+g(d) geom=connectivity m062x

Generated from MOL2

0 1
 C    1.600700   5.929300  -0.342500
 C    0.401900   5.142300   0.256600
 C   -0.937500   5.723800  -0.280600
 C    0.550200   3.597400   0.028000
 C   -0.482500   2.747900   0.824000
 C   -0.251200   1.208000   0.827700
 C   -1.473600   0.290200   1.229400
 C   -1.086800  -1.180200   0.863000
 C   -1.965300   0.425700   2.733000
 C   -2.446300   1.865000   3.124100
 C   -3.564100   1.764500   4.176200
 C   -3.498100   0.291700   4.594800
 C   -4.716900  -0.270600   5.392500
 C   -4.992900   0.565100   6.676100
 C   -5.956400  -0.034400   7.569300
 C   -6.313000  -1.337800   7.566600
 C   -7.319300  -1.778000   8.559200
 C   -6.842500  -3.000400   9.383900
 O   -7.920300  -3.503300   10.174600
 C   -6.301200  -4.122500   8.464900
 C   -5.234800  -3.568200   7.478400
 C   -5.717300  -2.338100   6.614000
 C   -6.837900  -2.800300   5.608400
 C   -4.459500  -1.760900   5.803000
 C   -3.908100  -2.619100   4.597600
 C   -2.777300  -1.933900   3.759600
 C   -3.148200  -0.482400   3.276900
 C   -4.332200  -0.535100   2.235900
 H    2.212100   6.330700   0.465700
 H    2.203800   5.260600  -0.956700
 H    1.226900   6.748600  -0.956700
 H    0.396000   5.282100   1.337600
 H   -1.575800   6.000900   0.558400
 H   -0.733200   6.605300  -0.888300
 H   -1.442000   4.972600  -0.888300
 H    0.325500   3.425600  -1.024700
 H    1.527200   3.326000   0.428100
 H   -0.370500   3.058500   1.862800
 H   -1.432600   2.895200   0.310500
 H   -0.031000   0.958000  -0.210100
 H    0.500400   1.042200   1.599500
 H   -2.342800   0.614500   0.657300
 H   -0.935600  -1.754700   1.776900
 H   -1.888200  -1.631900   0.278300
 H   -0.166800  -1.179000   0.278300
 H   -1.027000   0.108900   3.188200
 H   -1.607300   2.361700   3.611500
 H   -2.898000   2.304600   2.234800
 H   -3.281600   2.374500   5.034200
 H   -4.518600   1.933600   3.677800
 H   -2.733100   0.180000   5.363200
 H   -5.588500  -0.203500   4.741400
 H   -4.067700   0.587500   7.251900
 H   -5.460800   1.497500   6.360000
 H   -6.468800   0.560000   8.325800
 H   -7.420300  -0.944800   9.254700
 H   -8.177600  -2.105200   7.972500
 H   -6.079800  -2.697300   10.101200
 H   -7.707700  -3.404100   11.105500
 H   -5.785100  -4.829500   9.114400
 H   -7.142800  -4.454900   7.857200
 H   -4.426200  -3.194800   8.106800
 H   -5.046900  -4.376500   6.771700
 H   -7.703000  -3.157100   6.167400
 H   -7.132500  -1.959100   4.981000
 H   -6.453800  -3.604600   4.981000
 H   -3.623700  -1.808500   6.500900
 H   -3.444000  -3.496800   5.047300
 H   -4.746300  -2.737400   3.910800
 H   -1.932500  -1.818600   4.438800
 H   -2.672000  -2.534100   2.855800
 H   -5.282500  -0.577400   2.768200
 H   -4.305800   0.356900   1.610000
 H   -4.226600  -1.421300   1.610000

 1 2 1.0 29 1.0 30 1.0 31 1.0
 2 3 1.0 4 1.0 32 1.0
 3 33 1.0 34 1.0 35 1.0
 4 5 1.0 36 1.0 37 1.0
 5 6 1.0 38 1.0 39 1.0
 6 7 1.0 40 1.0 41 1.0
 7 8 1.0 9 1.0 42 1.0
 8 43 1.0 44 1.0 45 1.0
 9 10 1.0 27 1.0 46 1.0
 10 11 1.0 47 1.0 48 1.0
 11 12 1.0 49 1.0 50 1.0
 12 13 1.0 27 1.0 51 1.0
 13 14 1.0 24 1.0 52 1.0
 14 15 1.0 53 1.0 54 1.0
 15 16 2.0 55 1.0
 16 17 1.0 22 1.0
 17 18 1.0 56 1.0 57 1.0
 18 19 1.0 20 1.0 58 1.0
 19 59 1.0
 20 21 1.0 60 1.0 61 1.0
 21 22 1.0 62 1.0 63 1.0
 22 23 1.0 24 1.0
 23 64 1.0 65 1.0 66 1.0
 24 25 1.0 67 1.0
 25 26 1.0 68 1.0 69 1.0
 26 27 1.0 70 1.0 71 1.0
 27 28 1.0
 28 72 1.0 73 1.0 74 1.0
 29
 30
 31
 32
 33
 34
 35
 36
 37
 38
 39
 40
 41
 42
 43
 44
 45
 46
 47
 48
 49
 50
 51
 52
 53
 54
 55
 56
 57
 58
 59
 60
 61
 62
 63
 64
 65
 66
 67
 68
 69
 70
 71
 72
 73
 74

