%chk=C:\Users\respondus\Documents\CoAs3-Skutterudite.chk
# pbepbe/3-21g/auto

Title Card Required

0 1
 Co                 2.04250000    2.04250000    2.04250000
 As                 0.00000000    2.85950000    1.22550000
 Co                 6.12750000    6.12750000    2.04250000
 Co                 2.04250000    6.12750000    6.12750000
 Co                 6.12750000    2.04250000    6.12750000
 Co                 6.12750000    6.12750000    6.12750000
 Co                 2.04250000    2.04250000    6.12750000
 Co                 6.12750000    2.04250000    2.04250000
 Co                 2.04250000    6.12750000    2.04250000
 As                 0.00000000    5.31050000    1.22550000
 As                 0.00000000    5.31050000    6.94450000
 As                 0.00000000    2.85950000    6.94450000
 As                 1.22550000    0.00000000    2.85950000
 As                 6.94450000    0.00000000    2.85950000
 As                 1.22550000    0.00000000    5.31050000
 As                 6.94450000    0.00000000    5.31050000
 As                 2.85950000    1.22550000    0.00000000
 As                 2.85950000    6.94450000    0.00000000
 As                 5.31050000    1.22550000    0.00000000
 As                 5.31050000    6.94450000    0.00000000
 As                 4.08500000    6.94450000    5.31050000
 As                 4.08500000    1.22550000    5.31050000
 As                 4.08500000    1.22550000    2.85950000
 As                 4.08500000    6.94450000    2.85950000
 As                 5.31050000    4.08500000    6.94450000
 As                 2.85950000    4.08500000    6.94450000
 As                 5.31050000    4.08500000    1.22550000
 As                 2.85950000    4.08500000    1.22550000
 As                 6.94450000    5.31050000    4.08500000
 As                 6.94450000    2.85950000    4.08500000
 As                 1.22550000    5.31050000    4.08500000
 As                 1.22550000    2.85950000    4.08500000
 Tv                 8.17000000    0.00000000    0.00000000
 Tv                 0.00000000    8.17000000    0.00000000
 Tv                 0.00000000    0.00000000    8.17000000

