%chk=C:\Users\respondus\Documents\di-o-tosyl-1,6-phenantrenediol.chk
# hf/3-21g geom=connectivity

Title Card Required

0 1
 C                 -6.06075727   -6.38057840   -1.72287414
 C                 -4.68086627   -6.38057840   -1.72287414
 C                 -3.96153027   -5.16393440   -1.72287414
 C                 -4.65911927   -3.93203840   -1.72080414
 C                 -6.07310427   -3.96190240   -1.72039514
 C                 -6.75956627   -5.16047140   -1.72188214
 C                 -2.52647827   -5.17241740   -1.72455414
 C                 -3.90968727   -2.69535140   -1.71933314
 C                 -2.49484027   -2.74362640   -1.72115014
 C                 -1.82315027   -4.01180240   -1.72424214
 C                 -1.74911127   -1.54291540   -1.71941314
 H                 -0.65007627   -1.59957140   -1.72083114
 C                 -2.38772927   -0.31973240   -1.71573214
 C                 -3.79273727   -0.26492640   -1.71381014
 C                 -4.53760227   -1.42805340   -1.71572714
 H                 -2.01689227   -6.14818640   -1.72637914
 H                 -6.61997827   -7.32749340   -1.72372814
 H                 -6.64248627   -3.02092840   -1.71909114
 H                 -7.85966127   -5.16739440   -1.72215914
 H                 -0.72233327   -4.01228240   -1.72587114
 H                 -1.80712127    0.61423060   -1.71426514
 H                 -5.63526127   -1.35894840   -1.71409014
 O                 -4.44621213    1.00702313   -1.70993524
 S                 -3.91089200    2.13213308   -2.80828451
 O                 -5.02485239    2.44308465   -3.55958194
 O                 -2.82875880    1.46912118   -3.36608437
 C                 -3.44783683    3.38402619   -1.83848079
 C                 -4.37562183    4.35004682   -1.42054802
 C                 -2.11682413    3.51632380   -1.41389885
 C                 -3.99180696    5.40884337   -0.60621616
 H                 -5.42582840    4.26518294   -1.75468592
 C                 -1.72435486    4.57214435   -0.60095898
 H                 -1.37170088    2.76930552   -1.74329700
 C                 -2.66075994    5.52891894   -0.18542377
 H                 -4.73498222    6.15686638   -0.29061301
 H                 -0.67463650    4.65964957   -0.28187030
 C                 -2.25214336    6.64514680    0.69652761
 H                 -1.17180775    6.89542304    0.55538817
 H                 -2.85955204    7.56103415    0.49094218
 H                 -2.40788838    6.35469059    1.76706310
 O                 -3.95447014   -7.61234454   -1.72379152
 S                 -4.61063180   -8.87301690   -2.58342414
 O                 -3.64013114   -9.20971756   -3.50364562
 O                 -5.82062542   -8.32578954   -2.98116200
 C                 -4.79721417  -10.03403457   -1.42609935
 C                 -3.74448184  -10.90451340   -1.10567792
 C                 -6.01224856  -10.18289690   -0.73987873
 C                 -3.89573715  -11.88671317   -0.13412976
 H                 -2.78431013  -10.80635113   -1.64439705
 C                 -6.17244545  -11.16270093    0.23170833
 H                 -6.85460452   -9.51173941   -0.98833834
 C                 -5.11234117  -12.02384664    0.54722156
 H                 -3.05782536  -12.56044246    0.10133981
 H                 -7.13480124  -11.26507954    0.75589660
 C                 -5.27127821  -13.05699316    1.59513265
 H                 -6.33954362  -13.37190045    1.69170374
 H                 -4.65345572  -13.95984039    1.36443251
 H                 -4.93618696  -12.64617998    2.58185142

 1 2 2.0 6 1.5 17 1.0
 2 3 1.5 41 1.0
 3 4 1.5 7 1.5
 4 5 1.5 8 1.5
 5 6 2.0 18 1.0
 6 19 1.0
 7 10 2.0 16 1.0
 8 9 1.5 15 1.5
 9 10 1.5 11 1.5
 10 20 1.0
 11 12 1.0 13 2.0
 12
 13 14 1.5 21 1.0
 14 15 2.0 23 1.0
 15 22 1.0
 16
 17
 18
 19
 20
 21
 22
 23 24 1.0
 24 25 2.0 26 2.0 27 1.5
 25
 26
 27 28 1.5 29 1.5
 28 30 1.5 31 1.0
 29 32 1.5 33 1.0
 30 34 1.5 35 1.0
 31
 32 34 1.5 36 1.0
 33
 34 37 1.0
 35
 36
 37 38 1.0 39 1.0 40 1.0
 38
 39
 40
 41 42 1.0
 42 43 2.0 44 2.0 45 1.5
 43
 44
 45 46 1.5 47 1.5
 46 48 1.5 49 1.0
 47 50 1.5 51 1.0
 48 52 1.5 53 1.0
 49
 50 52 1.5 54 1.0
 51
 52 55 1.0
 53
 54
 55 56 1.0 57 1.0 58 1.0
 56
 57
 58

