%chk=C:\Users\respondus\Documents\dipyridine-nanoring.chk
# hf/3-21g geom=connectivity

Molecule Name

0 1
 C                  1.21130000    3.72810000    0.00000000
 H                  1.28010000    3.93460000   -1.04760000
 C                  2.30410000    3.17130000    0.71100000
 C                  3.17130000    2.30410000    0.00000000
 H                  3.38460000    2.40720000   -1.04340000
 C                  3.72810000    1.21130000    0.71100000
 C                  3.91990000    0.00000000    0.00000000
 H                  4.19560000   -0.06280000   -1.03200000
 C                  3.72810000   -1.21130000    0.71100000
 C                  3.17130000   -2.30410000    0.00000000
 C                  2.30410000   -3.17130000    0.71100000
 C                  1.21130000   -3.72810000    0.00000000
 H                  1.31120000   -4.05190000   -1.01490000
 C                  0.00000000   -3.91990000    0.71100000
 C                 -1.21130000   -3.72810000    0.00000000
 H                 -1.28280000   -4.05230000   -1.01720000
 C                 -2.30410000   -3.17130000    0.71100000
 C                 -3.17130000   -2.30410000    0.00000000
 H                 -3.38750000   -2.52940000   -1.02340000
 C                 -3.72810000   -1.21130000    0.71100000
 C                 -3.91990000    0.00000000    0.00000000
 H                 -4.19870000   -0.06280000   -1.03110000
 C                 -3.72810000    1.21130000    0.71100000
 C                 -3.17130000    2.30410000    0.00000000
 H                 -3.40680000    2.40620000   -1.03880000
 C                 -2.30410000    3.17130000    0.71100000
 C                 -1.21130000    3.72810000    0.00000000
 H                 -1.31390000    3.93380000   -1.04500000
 C                  0.00000000    3.91990000    0.71100000
 C                  0.00000000    3.91990000    2.13300000
 C                  1.21130000    3.72810000    2.84400000
 H                  1.27590000    3.93600000    3.89160000
 C                  2.30410000    3.17130000    2.13300000
 C                  3.17130000    2.30410000    2.84400000
 C                  3.72810000    1.21130000    2.13300000
 C                  3.91990000    0.00000000    2.84400000
 C                  3.72810000   -1.21130000    2.13300000
 C                  3.17130000   -2.30410000    2.84400000
 H                  3.39950000   -2.52960000    3.86480000
 C                  2.30410000   -3.17130000    2.13300000
 C                  1.21130000   -3.72810000    2.84400000
 H                  1.30690000   -4.05280000    3.85910000
 C                  0.00000000   -3.91990000    2.13300000
 C                 -1.21130000   -3.72810000    2.84400000
 H                 -1.28700000   -4.05310000    3.86060000
 C                 -2.30410000   -3.17130000    2.13300000
 C                 -3.17130000   -2.30410000    2.84400000
 C                 -3.72810000   -1.21130000    2.13300000
 C                 -3.91990000    0.00000000    2.84400000
 H                 -4.20290000   -0.06270000    3.87400000
 C                 -3.72810000    1.21130000    2.13300000
 C                 -3.17130000    2.30410000    2.84400000
 H                 -3.41090000    2.40690000    3.88170000
 C                 -2.30410000    3.17130000    2.13300000
 C                 -1.21130000    3.72810000    2.84400000
 H                 -1.31800000    3.93500000    3.88840000
 H                  4.16320000    0.00200000    3.75360000
 H                  3.36780000   -2.44650000   -0.90980000
 C                  3.47224318    2.45406786    4.34684492
 C                  4.59513899    3.16180867    4.77956837
 C                  2.62827645    1.88373947    5.30141095
 C                  4.82887170    3.27062869    6.16262040
 H                  5.28417087    3.62566758    4.06233818
 C                  2.94630411    2.04715204    6.66218260
 H                  1.73520539    1.31933007    5.00437178
 N                  4.02528638    2.72686124    7.09724853
 H                  5.70568292    3.82204722    6.54634479
 H                  2.30475713    1.61190925    7.44910774
 C                 -3.48866034   -2.62894457    4.31551569
 C                 -4.33699606   -1.80552276    5.05804154
 C                 -2.93237441   -3.75114869    4.93192021
 C                 -4.59602480   -2.14264559    6.39914483
 H                 -4.79519820   -0.91375858    4.61177189
 C                 -3.25142894   -4.00491085    6.27852843
 H                 -2.26055430   -4.42456467    4.38462248
 N                 -4.06803483   -3.22127891    7.00966830
 H                 -5.26151250   -1.51771126    7.02098718
 H                 -2.83259396   -4.88207894    6.80333640

 1 2 1.0 3 1.0 29 2.0
 2
 3 4 2.0 33 1.0
 4 5 1.0 6 1.0
 5
 6 7 2.0 35 1.0
 7 8 1.0 9 2.0
 8
 9 10 1.0 37 1.0
 10 11 1.0 58 1.0
 11 12 2.0 40 1.0
 12 13 1.0 14 1.0
 13
 14 15 2.0 43 1.0
 15 16 1.0 17 1.0
 16
 17 18 2.0 46 1.0
 18 19 1.0 20 1.0
 19
 20 21 2.0 48 1.0
 21 22 1.0 23 1.0
 22
 23 24 2.0 51 1.0
 24 25 1.0 26 1.0
 25
 26 27 2.0 54 1.0
 27 28 1.0 29 1.0
 28
 29 30 1.0
 30 31 2.0 55 1.0
 31 32 1.0 33 1.0
 32
 33 34 2.0
 34 35 2.0 59 1.0
 35 36 1.0
 36 37 1.0 57 1.0
 37 38 2.0
 38 39 1.0 40 1.0
 39
 40 41 2.0
 41 42 1.0 43 1.0
 42
 43 44 2.0
 44 45 1.0 46 1.0
 45
 46 47 2.0
 47 48 1.0 69 1.0
 48 49 2.0
 49 50 1.0 51 1.0
 50
 51 52 2.0
 52 53 1.0 54 1.0
 53
 54 55 2.0
 55 56 1.0
 56
 57
 58
 59 60 1.5 61 1.5
 60 62 1.5 63 1.0
 61 64 1.5 65 1.0
 62 66 1.5 67 1.0
 63
 64 66 1.5 68 1.0
 65
 66
 67
 68
 69 70 1.5 71 1.5
 70 72 1.5 73 1.0
 71 74 1.5 75 1.0
 72 76 1.5 77 1.0
 73
 74 76 1.5 78 1.0
 75
 76
 77
 78

