%rwf=temp_file_name.rwf
%nosave
%mem=64GB
%nprocshared=20
%chk=temp_file_name.chk
# opt 6-31+g(d) geom=connectivity m062x

Generated from MOL2

0 1
 C    10.251000  -2.008600   11.247000
 C    9.208900  -2.462900   10.202800
 C    8.377700  -1.279400   9.645700
 C    7.332600  -1.740700   8.598200
 C    6.503300  -0.555700   8.044000
 C    5.454700  -1.007200   6.994700
 C    4.641300   0.196200   6.453600
 C    3.589500  -0.212000   5.391900
 C    2.808700   1.016400   4.851600
 C    1.765600   0.626900   3.772700
 C    1.010500   1.852500   3.186000
 C   -0.034400   1.447800   2.258100
 C   -1.227500   0.968000   2.656000
 C   -2.176300   0.517400   1.786800
 C   -3.404800   0.113700   2.163900
 C   -4.341500  -0.364200   1.290400
 C   -5.582600  -0.735000   1.662200
 C   -6.524900  -1.204300   0.792800
 C   -7.770700  -1.548200   1.169100
 C   -8.744800  -2.025300   0.309800
 O   -8.488700  -2.442500  -0.955500
 O   -9.933100  -2.094900   0.698300
 H    9.859000  -2.179500   12.249600
 H    11.170600  -2.578600   11.114300
 H    10.459300  -0.946900   11.114300
 H    9.777400  -2.858700   9.361200
 H    8.506900  -3.104000   10.735900
 H    7.810000  -0.883600   10.487800
 H    9.080300  -0.638700   9.112700
 H    7.899700  -2.135800   7.755300
 H    6.629800  -2.381500   9.130500
 H    5.937600  -0.161200   8.888100
 H    7.207600   0.084600   7.513000
 H    6.017000  -1.402800   6.149000
 H    4.745500  -1.644100   7.523500
 H    4.077200   0.584100   7.301800
 H    5.357200   0.835500   5.937100
 H    4.149100  -0.614700   4.547600
 H    2.860100  -0.835200   5.909300
 H    2.239900   1.409100   5.694400
 H    3.543100   1.645800   4.349100
 H    2.334100   0.199200   2.946900
 H    1.013900   0.026700   4.285400
 H    0.486300   2.338800   4.008700
 H    1.721600   2.417400   2.583100
 H    0.086400   1.509100   1.176600
 H   -1.433700   0.943200   3.726000
 H   -1.937900   0.477500   0.724000
 H   -3.652100   0.176700   3.223600
 H   -4.083500  -0.455100   0.235300
 H   -5.836900  -0.651100   2.718800
 H   -6.268100  -1.310400  -0.261300
 H   -8.003400  -1.434100   2.227900
 H   -8.483500  -3.402100  -0.981200

 1 2 1.0 23 1.0 24 1.0 25 1.0
 2 3 1.0 26 1.0 27 1.0
 3 4 1.0 28 1.0 29 1.0
 4 5 1.0 30 1.0 31 1.0
 5 6 1.0 32 1.0 33 1.0
 6 7 1.0 34 1.0 35 1.0
 7 8 1.0 36 1.0 37 1.0
 8 9 1.0 38 1.0 39 1.0
 9 10 1.0 40 1.0 41 1.0
 10 11 1.0 42 1.0 43 1.0
 11 12 1.0 44 1.0 45 1.0
 12 13 2.0 46 1.0
 13 14 1.0 47 1.0
 14 15 2.0 48 1.0
 15 16 1.0 49 1.0
 16 17 2.0 50 1.0
 17 18 1.0 51 1.0
 18 19 2.0 52 1.0
 19 20 1.0 53 1.0
 20 21 1.0 22 2.0
 21 54 1.0
 22
 23
 24
 25
 26
 27
 28
 29
 30
 31
 32
 33
 34
 35
 36
 37
 38
 39
 40
 41
 42
 43
 44
 45
 46
 47
 48
 49
 50
 51
 52
 53
 54

