%rwf=temp_file_name.rwf
%nosave
%mem=64GB
%nprocshared=20
%chk=temp_file_name.chk
# opt 6-31+g(d) geom=connectivity m062x

Generated from MOL2

0 1
 C    2.590700   4.652300   3.228300
 C    2.228400   3.403300   2.501800
 C    0.878500   3.065300   2.206100
 C   -0.248700   3.926800   2.657400
 C    0.601800   1.881900   1.479200
 C    1.615600   0.992500   1.032600
 N    1.393800  -0.173300   0.301600
 C    0.042600  -0.601000  -0.082700
 C   -0.487600   0.078200  -1.388300
 O   -0.294200   1.490500  -1.362000
 C   -1.997800  -0.172800  -1.714400
 O   -2.816100   0.228800  -0.612000
 C   -2.332900  -1.635800  -2.123700
 O   -1.614800  -1.992600  -3.308500
 C   -3.846500  -1.903800  -2.365200
 O   -4.464900  -2.287500  -1.118800
 P   -5.964100  -2.835500  -1.197800
 O   -6.225100  -3.624500  -2.546100
 O   -6.877000  -1.685900  -1.140400
 O   -6.241200  -3.764600   0.076200
 P   -5.799000  -5.306200   0.108100
 O   -6.339700  -6.103700  -1.153300
 O   -6.451300  -5.894200   1.290400
 O   -4.225100  -5.543200   0.294200
 C   -3.369400  -5.346500  -0.846600
 C   -1.986800  -5.998800  -0.614500
 O   -2.179900  -7.414600  -0.507800
 C   -1.285900  -8.149400  -1.354700
 C   -0.305900  -7.099700  -2.011800
 O    0.998100  -7.209200  -1.403300
 C   -0.950600  -5.671900  -1.726000
 O   -0.056100  -4.623900  -1.256300
 N   -2.004100  -8.907900  -2.348100
 C   -3.329300  -8.884600  -2.628800
 N   -3.654900  -9.761700  -3.598400
 C   -2.505800  -10.355500  -3.943700
 C   -2.214800  -11.358800  -4.885200
 N   -3.166700  -11.926300  -5.646200
 N   -0.919800  -11.759100  -5.009600
 C    0.080700  -11.220600  -4.256200
 N   -0.193900  -10.254600  -3.335700
 C   -1.473000  -9.826400  -3.177300
 C    2.473900  -0.953500  -0.078000
 N    2.348500  -2.104300  -0.802000
 C    3.404300  -2.871800  -1.170800
 O    3.218300  -3.918500  -1.830400
 N    4.660600  -2.497200  -0.827900
 C    4.882400  -1.365500  -0.113500
 O    6.060500  -1.057200   0.175900
 C    3.790800  -0.567700   0.282200
 N    3.974300   0.563500   0.991100
 C    2.949500   1.353700   1.372300
 C    3.251500   2.523400   2.090000
 H    2.539400   4.475600   4.302600
 H    3.603600   4.949700   2.956900
 H    1.894100   5.445500   2.956900
 H   -0.276300   3.948000   3.746800
 H   -0.107000   4.938800   2.277800
 H   -1.187900   3.524600   2.277800
 H   -0.437900   1.645100   1.253400
 H    0.140800  -1.665800  -0.294000
 H   -0.595400  -0.264100   0.734300
 H    0.140600  -0.306800  -2.191600
 H   -0.253000   1.791000  -0.451200
 H   -2.285700   0.481500  -2.537200
 H   -3.150600  -0.550100  -0.161300
 H   -1.973400  -2.290200  -1.329600
 H   -1.571200  -2.948900  -3.380500
 H   -4.316700  -0.961600  -2.646500
 H   -3.936900  -2.773700  -3.015800
 H   -6.192200  -4.568700  -2.375800
 H   -6.269500  -7.047100  -0.989600
 H   -3.855400  -5.879600  -1.663700
 H   -3.221700  -4.268500  -0.910700
 H   -1.572200  -5.663100   0.336000
 H   -0.810100  -8.921500  -0.750000
 H   -0.088300  -7.281900  -3.064200
 H    0.907000  -7.201600  -0.447700
 H   -1.302400  -5.177900  -2.631600
 H   -0.049000  -4.615600  -0.296400
 H   -4.050200  -8.235200  -2.132100
 H   -3.972200  -11.388100  -5.932000
 H   -3.076400  -12.890800  -5.932000
 H    1.106300  -11.564500  -4.390500
 H    5.443400  -3.070200  -1.109100
 H    4.290300   2.750700   2.329700

 1 2 1.0 54 1.0 55 1.0 56 1.0
 2 3 1.5 53 1.5
 3 4 1.0 5 1.5
 4 57 1.0 58 1.0 59 1.0
 5 6 1.5 60 1.0
 6 7 1.5 52 1.5
 7 8 1.0 43 1.5
 8 9 1.0 61 1.0 62 1.0
 9 10 1.0 11 1.0 63 1.0
 10 64 1.0
 11 12 1.0 13 1.0 65 1.0
 12 66 1.0
 13 14 1.0 15 1.0 67 1.0
 14 68 1.0
 15 16 1.0 69 1.0 70 1.0
 16 17 1.0
 17 18 1.0 19 2.0 20 1.0
 18 71 1.0
 19
 20 21 1.0
 21 22 1.0 23 2.0 24 1.0
 22 72 1.0
 23
 24 25 1.0
 25 26 1.0 73 1.0 74 1.0
 26 27 1.0 31 1.0 75 1.0
 27 28 1.0
 28 29 1.0 33 1.0 76 1.0
 29 30 1.0 31 1.0 77 1.0
 30 78 1.0
 31 32 1.0 79 1.0
 32 80 1.0
 33 34 1.5 42 1.5
 34 35 1.5 81 1.0
 35 36 1.5
 36 37 1.5 42 1.5
 37 38 1.0 39 1.5
 38 82 1.0 83 1.0
 39 40 1.5
 40 41 1.5 84 1.0
 41 42 1.5
 42
 43 44 1.5 50 1.0
 44 45 1.5
 45 46 2.0 47 1.5
 46
 47 48 1.5 85 1.0
 48 49 2.0 50 1.5
 49
 50 51 1.5
 51 52 1.5
 52 53 1.5
 53 86 1.0
 54
 55
 56
 57
 58
 59
 60
 61
 62
 63
 64
 65
 66
 67
 68
 69
 70
 71
 72
 73
 74
 75
 76
 77
 78
 79
 80
 81
 82
 83
 84
 85
 86

