%chk=C:\Users\respondus\Documents\FeCO3-Siderte.chk
# pbepbe/3-21g/auto

Title Card Required

0 1
 Fe                 0.00000000    0.00000000    0.00000000
 C                  0.00000000    0.00000000    3.84490000
 O                  1.28676513    0.00000000    3.84490000
 Fe                 0.00000000    0.00000000    7.68980000
 Fe                 2.34580000    1.35434826    5.12653333
 Fe                 2.34580000    1.35434826   12.81633333
 Fe                 0.00000000    2.70869652   10.25306667
 Fe                 0.00000000    2.70869652    2.56326667
 C                  0.00000000    0.00000000   11.53470000
 C                  2.34580000    1.35434826    8.97143333
 C                  2.34580000    1.35434826    1.28163333
 C                  0.00000000    2.70869652   14.09796667
 C                  0.00000000    2.70869652    6.40816667
 O                 -0.64338257    1.11437129    3.84490000
 O                  1.70241743    2.94867349    3.84490000
 O                  3.40483487    0.00000000   11.53470000
 O                 -1.70241743    2.94867349   11.53470000
 O                  0.64338257    1.11437129   11.53470000
 O                  3.63256513    1.35434826    8.97143333
 O                  1.70241743    2.46871955    8.97143333
 O                  1.70241743    0.23997697    8.97143333
 O                  1.05903487    1.35434826    1.28163333
 O                  2.98918257    0.23997697    1.28163333
 O                  2.98918257    2.46871955    1.28163333
 O                  1.28676513    2.70869652   14.09796667
 O                 -0.64338257    3.82306782   14.09796667
 O                 -0.64338257    1.59432523   14.09796667
 O                 -1.28676513    2.70869652    6.40816667
 O                  0.64338257    1.59432523    6.40816667
 O                  0.64338257    3.82306782    6.40816667
 Tv                 4.69160000    0.00000000    0.00000000
 Tv                -2.34580000    4.06304478    0.00000000
 Tv                 0.00000000    0.00000000   15.37960000

