%chk=C:\Users\respondus\Documents\FeMnO3-Bixbyite.chk
# pbepbe/3-21g/auto

Title Card Required

0 1
 Fe                 2.34125000    2.34125000    2.34125000
 Mn                 2.34125000    2.34125000    2.34125000
 Fe                 9.08405000    0.00000000    2.34125000
 Mn                 9.08405000    0.00000000    2.34125000
 O                  3.60552500    1.35792500    3.55870000
 Fe                 7.02375000    2.34125000    2.34125000
 Fe                 2.34125000    7.02375000    2.34125000
 Fe                 7.02375000    7.02375000    2.34125000
 Fe                 2.34125000    7.02375000    7.02375000
 Fe                 7.02375000    7.02375000    7.02375000
 Fe                 7.02375000    2.34125000    7.02375000
 Fe                 2.34125000    2.34125000    7.02375000
 Mn                 7.02375000    2.34125000    2.34125000
 Mn                 2.34125000    7.02375000    2.34125000
 Mn                 7.02375000    7.02375000    2.34125000
 Mn                 2.34125000    7.02375000    7.02375000
 Mn                 7.02375000    7.02375000    7.02375000
 Mn                 7.02375000    2.34125000    7.02375000
 Mn                 2.34125000    2.34125000    7.02375000
 Fe                 0.28095000    4.68250000    2.34125000
 Fe                 2.34125000    9.08405000    0.00000000
 Fe                 7.02375000    4.96345000    0.00000000
 Fe                 2.34125000    0.28095000    4.68250000
 Fe                 7.02375000    4.40155000    4.68250000
 Fe                 0.00000000    2.34125000    9.08405000
 Fe                 0.00000000    7.02375000    4.96345000
 Fe                 4.68250000    7.02375000    4.40155000
 Fe                 0.28095000    0.00000000    7.02375000
 Fe                 9.08405000    4.68250000    7.02375000
 Fe                 7.02375000    0.28095000    0.00000000
 Fe                 2.34125000    4.40155000    0.00000000
 Fe                 7.02375000    9.08405000    4.68250000
 Fe                 2.34125000    4.96345000    4.68250000
 Fe                 0.00000000    7.02375000    0.28095000
 Fe                 0.00000000    2.34125000    4.40155000
 Fe                 4.68250000    2.34125000    4.96345000
 Fe                 4.40155000    4.68250000    7.02375000
 Fe                 4.96345000    0.00000000    7.02375000
 Fe                 4.68250000    2.34125000    0.28095000
 Fe                 4.96345000    4.68250000    2.34125000
 Fe                 4.40155000    0.00000000    2.34125000
 Fe                 4.68250000    7.02375000    9.08405000
 Mn                 0.28095000    4.68250000    2.34125000
 Mn                 2.34125000    9.08405000    0.00000000
 Mn                 7.02375000    4.96345000    0.00000000
 Mn                 2.34125000    0.28095000    4.68250000
 Mn                 7.02375000    4.40155000    4.68250000
 Mn                 0.00000000    2.34125000    9.08405000
 Mn                 0.00000000    7.02375000    4.96345000
 Mn                 4.68250000    7.02375000    4.40155000
 Mn                 0.28095000    0.00000000    7.02375000
 Mn                 9.08405000    4.68250000    7.02375000
 Mn                 7.02375000    0.28095000    0.00000000
 Mn                 2.34125000    4.40155000    0.00000000
 Mn                 7.02375000    9.08405000    4.68250000
 Mn                 2.34125000    4.96345000    4.68250000
 Mn                 0.00000000    7.02375000    0.28095000
 Mn                 0.00000000    2.34125000    4.40155000
 Mn                 4.68250000    2.34125000    4.96345000
 Mn                 4.40155000    4.68250000    7.02375000
 Mn                 4.96345000    0.00000000    7.02375000
 Mn                 4.68250000    2.34125000    0.28095000
 Mn                 4.96345000    4.68250000    2.34125000
 Mn                 4.40155000    0.00000000    2.34125000
 Mn                 4.68250000    7.02375000    9.08405000
 O                  5.75947500    3.32457500    3.55870000
 O                  3.60552500    8.00707500    1.12380000
 O                  5.75947500    6.04042500    1.12380000
 O                  3.55870000    3.60552500    1.35792500
 O                  5.80630000    1.07697500    1.35792500
 O                  3.55870000    5.75947500    3.32457500
 O                  5.80630000    8.28802500    3.32457500
 O                  1.35792500    3.55870000    3.60552500
 O                  1.35792500    5.80630000    1.07697500
 O                  8.00707500    8.24120000    1.07697500
 O                  3.32457500    5.80630000    8.28802500
 O                  5.75947500    8.00707500    5.80630000
 O                  3.60552500    6.04042500    5.80630000
 O                  5.75947500    1.35792500    8.24120000
 O                  3.60552500    3.32457500    8.24120000
 O                  5.80630000    5.75947500    8.00707500
 O                  3.55870000    8.28802500    8.00707500
 O                  5.80630000    3.60552500    6.04042500
 O                  3.55870000    1.07697500    6.04042500
 O                  8.00707500    5.80630000    5.75947500
 O                  8.00707500    3.55870000    8.28802500
 O                  1.35792500    1.12380000    8.28802500
 O                  6.04042500    3.55870000    1.07697500
 O                  8.28802500    6.04042500    8.24120000
 O                  1.07697500    8.00707500    8.24120000
 O                  8.28802500    3.32457500    5.80630000
 O                  1.07697500    1.35792500    5.80630000
 O                  8.24120000    8.28802500    6.04042500
 O                  1.12380000    5.75947500    6.04042500
 O                  8.24120000    1.07697500    8.00707500
 O                  1.12380000    3.60552500    8.00707500
 O                  6.04042500    8.24120000    8.28802500
 O                  6.04042500    1.12380000    5.75947500
 O                  3.32457500    3.55870000    5.75947500
 O                  8.00707500    1.12380000    3.60552500
 O                  1.07697500    3.32457500    1.12380000
 O                  8.28802500    1.35792500    1.12380000
 O                  1.07697500    6.04042500    3.55870000
 O                  8.28802500    8.00707500    3.55870000
 O                  1.12380000    1.07697500    3.32457500
 O                  8.24120000    3.60552500    3.32457500
 O                  1.12380000    8.28802500    1.35792500
 O                  8.24120000    5.75947500    1.35792500
 O                  3.32457500    1.12380000    1.07697500
 O                  3.32457500    8.24120000    3.60552500
 O                  6.04042500    5.80630000    3.60552500
 O                  1.35792500    8.24120000    5.75947500
 Tv                 9.36500000    0.00000000    0.00000000
 Tv                 0.00000000    9.36500000    0.00000000
 Tv                 0.00000000    0.00000000    9.36500000

