%rwf=temp_file_name.rwf
%nosave
%mem=64GB
%nprocshared=20
%chk=temp_file_name.chk
# opt 6-31+g(d) geom=connectivity m062x

Generated from MOL2

0 1
 C   -5.300100  -11.853500   3.328100
 C   -4.026100  -11.509400   2.694600
 C   -2.839400  -12.273400   3.086900
 C   -3.975800  -10.501500   1.791200
 C   -2.769900  -10.038200   1.107600
 C   -2.987000  -8.819000   0.163200
 C   -1.737100  -8.402600  -0.498200
 C   -1.456500  -8.915900  -1.841000
 C   -0.885400  -7.560900   0.138400
 C    0.387300  -7.072800  -0.394200
 C    1.146500  -6.071400   0.526000
 C    2.455900  -5.687600  -0.032700
 C    3.651700  -6.404800   0.417900
 C    2.527500  -4.684200  -0.939600
 C    3.744800  -4.199600  -1.589000
 C    3.512600  -2.998200  -2.551200
 C    4.752500  -2.583200  -3.226100
 C    5.042900  -3.138400  -4.549100
 C    5.587800  -1.703100  -2.627300
 C    6.840900  -1.222800  -3.187700
 O    7.424700  -0.205000  -2.382800
 H   -5.186900  -11.822900   4.411800
 H   -6.063000  -11.137700   3.022100
 H   -5.598900  -12.856100   3.022100
 H   -2.776500  -12.313900   4.174400
 H   -2.911200  -13.285700   2.689200
 H   -1.947600  -11.789100   2.689200
 H   -4.947400  -10.043500   1.606300
 H   -2.114100  -9.703300   1.911300
 H   -2.475400  -10.877900   0.478100
 H   -3.641700  -9.148300  -0.643700
 H   -3.275100  -7.973800   0.788300
 H   -1.460600  -10.005700  -1.821600
 H   -2.221200  -8.562000  -2.532400
 H   -0.478900  -8.562000  -2.168300
 H   -1.240600  -7.262500   1.124800
 H    1.008700  -7.965200  -0.468400
 H    0.110500  -6.524900  -1.294900
 H    0.564600  -5.149900   0.549100
 H    1.374400  -6.595400   1.454100
 H    3.677200  -6.420100   1.507500
 H    3.626000  -7.427100   0.040700
 H    4.541500  -5.900600   0.040700
 H    1.554700  -4.243700  -1.158200
 H    4.366900  -3.836900  -0.770800
 H    4.081900  -5.036700  -2.200300
 H    2.855900  -3.345300  -3.348900
 H    3.221800  -2.145000  -1.938300
 H    5.031400  -4.227000  -4.496800
 H    4.287500  -2.800700  -5.258600
 H    6.026000  -2.800700  -4.877100
 H    5.236200  -1.366900  -1.652000
 H    7.537300  -2.060800  -3.160300
 H    6.596800  -0.747900  -4.138000
 H    7.301200  -0.420200  -1.455400

 1 2 1.0 22 1.0 23 1.0 24 1.0
 2 3 1.0 4 2.0
 3 25 1.0 26 1.0 27 1.0
 4 5 1.0 28 1.0
 5 6 1.0 29 1.0 30 1.0
 6 7 1.0 31 1.0 32 1.0
 7 8 1.0 9 2.0
 8 33 1.0 34 1.0 35 1.0
 9 10 1.0 36 1.0
 10 11 1.0 37 1.0 38 1.0
 11 12 1.0 39 1.0 40 1.0
 12 13 1.0 14 2.0
 13 41 1.0 42 1.0 43 1.0
 14 15 1.0 44 1.0
 15 16 1.0 45 1.0 46 1.0
 16 17 1.0 47 1.0 48 1.0
 17 18 1.0 19 2.0
 18 49 1.0 50 1.0 51 1.0
 19 20 1.0 52 1.0
 20 21 1.0 53 1.0 54 1.0
 21 55 1.0
 22
 23
 24
 25
 26
 27
 28
 29
 30
 31
 32
 33
 34
 35
 36
 37
 38
 39
 40
 41
 42
 43
 44
 45
 46
 47
 48
 49
 50
 51
 52
 53
 54
 55

