%chk=C:\Users\respondus\Documents\Guidottiite.chk
# pbepbe/3-21g/auto

Title Card Required

0 1
 Mn                 0.92860128    4.80017291    3.39530000
 Fe                 0.92860128    4.80017291    3.39530000
 Mg                 0.92860128    4.80017291    3.39530000
 Si                 0.00000000    0.00000000    0.54610720
 Fe                 0.00000000    0.00000000    0.54610720
 Si                 0.00000000    3.20267741    0.52323360
 Fe                 0.00000000    3.20267741    0.52323360
 O                  0.13868000    1.59493335    0.00000000
 O                  0.00000000    0.00000000    2.24447200
 O                  0.00000000    3.20267741    2.25447920
 O                  2.77360000    1.60133871    2.27592320
 O                  1.85553840    0.00480402    4.40459760
 Mn                 1.85442896    3.20427875   10.54330000
 Mn                -1.84777232    3.20812196    3.39530000
 Mn                 1.84499872    0.00384321   10.54330000
 Mn                 0.91917104    1.59973737    3.39530000
 Mn                 4.62137232    1.59589416   10.54330000
 Fe                 1.85442896    3.20427875   10.54330000
 Fe                -1.84777232    3.20812196    3.39530000
 Fe                 1.84499872    0.00384321   10.54330000
 Fe                 0.91917104    1.59973737    3.39530000
 Fe                 4.62137232    1.59589416   10.54330000
 Mg                 1.85442896    3.20427875   10.54330000
 Mg                -1.84777232    3.20812196    3.39530000
 Mg                 1.84499872    0.00384321   10.54330000
 Mg                 0.91917104    1.59973737    3.39530000
 Mg                 4.62137232    1.59589416   10.54330000
 Si                 0.00000000    0.00000000    7.69410720
 Fe                 0.00000000    0.00000000    7.69410720
 Si                 2.77360000    1.60133871    7.67123360
 Fe                 2.77360000    1.60133871    7.67123360
 O                  4.23528720    0.91756708    7.14800000
 O                  1.32300720    4.12664985    0.00000000
 O                  2.63492000    3.20908277    7.14800000
 O                 -1.46168720    3.88644904    0.00000000
 O                  1.45059280    0.67736627    7.14800000
 O                  0.00000000    0.00000000    9.39247200
 O                  2.77360000    1.60133871    9.40247920
 O                  0.00000000    3.20267741    9.42392320
 O                  0.92360880    1.60934540   11.55259760
 O                  4.61527040    1.60454138    4.40459760
 O                  0.91806160    4.79921210   11.55259760
 O                  1.84999120    3.19467072    4.40459760
 O                 -1.84167040    3.19947474   11.55259760
 Tv                 5.54720000    0.00000000    0.00000000
 Tv                -2.77360000    4.80401612    0.00000000
 Tv                 0.00000000    0.00000000   14.29600000

