%rwf=temp_file_name.rwf
%nosave
%mem=64GB
%nprocshared=20
%chk=temp_file_name.chk
# opt 6-31+g(d) geom=connectivity m062x

Generated from MOL2

0 1
 C    1.191800  -1.025000  -4.047900
 C    0.928500  -2.306500  -3.198000
 C   -0.492600  -2.191600  -2.539400
 C   -1.134600  -3.492000  -1.948900
 C   -2.130100  -3.186000  -0.922700
 C   -2.231600  -3.707500   0.324200
 C   -3.225300  -3.129700   1.231500
 C   -1.399100  -4.804600   0.822500
 C    2.095200  -2.769400  -2.229700
 C    3.454800  -3.132500  -2.909700
 C    4.550300  -2.990900  -1.819700
 C    3.787900  -2.855500  -0.456200
 C    3.533300  -4.342700   0.057300
 C    4.453900  -2.220500   0.715500
 C    3.697800  -1.805000   1.779400
 C    2.213800  -1.700400   1.644400
 C    1.520900  -2.008400   0.271400
 C    2.532800  -1.998000  -0.920700
 C    2.881700  -0.489100  -1.243400
 C    4.340000  -1.421500   3.096500
 C    4.520200   0.141200   3.047900
 C    3.424900  -1.784100   4.335000
 C    4.097900  -1.693800   5.726500
 C    5.331800  -2.623600   5.802700
 O    5.852500  -2.568900   7.132700
 C    6.415900  -2.306200   4.704200
 C    7.231100  -1.017500   5.076500
 C    7.451600  -3.495600   4.729000
 C    5.694400  -2.249400   3.278500
 C    6.633100  -1.926500   2.078800
 C    5.927600  -2.202800   0.727500
 H    1.365900  -0.178200  -3.384100
 H    2.068600  -1.180000  -4.676800
 H    0.325000  -0.821600  -4.676800
 H    0.920300  -3.144400  -3.895200
 H   -0.353600  -1.533700  -1.681500
 H   -1.156700  -1.895400  -3.351400
 H   -1.693900  -3.975000  -2.750200
 H   -0.349000  -4.038000  -1.426800
 H   -2.917200  -2.457500  -1.117100
 H   -2.921500  -3.306400   2.263300
 H   -3.299700  -2.056900   1.053300
 H   -4.194500  -3.595600   1.053300
 H   -1.404000  -4.798200   1.912500
 H   -1.795900  -5.754000   0.462900
 H   -0.378000  -4.678000   0.462900
 H    1.485800  -3.611500  -1.901600
 H    3.410500  -4.185300  -3.188700
 H    3.653900  -2.375600  -3.668400
 H    5.107900  -3.927200  -1.795700
 H    5.071200  -2.051000  -2.002500
 H    3.531100  -4.355400   1.147200
 H    2.570100  -4.694800  -0.312100
 H    4.324500  -4.995100  -0.312100
 H    1.844800  -2.459900   2.333600
 H    2.017700  -0.646000   1.839400
 H    1.146800  -3.029800   0.341600
 H    0.829300  -1.186100   0.088200
 H    3.009000   0.061700  -0.311400
 H    3.805300  -0.445200  -1.820500
 H    2.071100  -0.044200  -1.820500
 H    4.565500   0.533500   4.063800
 H    5.444200   0.384200   2.523100
 H    3.675900   0.588200   2.523100
 H    2.638700  -1.029300   4.354000
 H    3.167300  -2.836400   4.215500
 H    4.472500  -0.674800   5.823700
 H    3.375300  -2.079800   6.445500
 H    5.035000  -3.665000   5.678300
 H    5.981700  -3.461100   7.462700
 H    7.289500  -0.925200   6.161000
 H    8.237100  -1.092100   4.663500
 H    6.732800  -0.140500   4.663500
 H    7.679600  -3.757400   5.762200
 H    7.024300  -4.360100   4.220900
 H    8.366600  -3.191200   4.220900
 H    5.401400  -3.298400   3.236200
 H    6.821100  -0.853300   2.112700
 H    7.465400  -2.627800   2.139200
 H    6.185500  -1.367000   0.077000
 H    6.204700  -3.218600   0.445500

 1 2 1.0 32 1.0 33 1.0 34 1.0
 2 3 1.0 9 1.0 35 1.0
 3 4 1.0 36 1.0 37 1.0
 4 5 1.0 38 1.0 39 1.0
 5 6 2.0 40 1.0
 6 7 1.0 8 1.0
 7 41 1.0 42 1.0 43 1.0
 8 44 1.0 45 1.0 46 1.0
 9 10 1.0 18 1.0 47 1.0
 10 11 1.0 48 1.0 49 1.0
 11 12 1.0 50 1.0 51 1.0
 12 13 1.0 14 1.0 18 1.0
 13 52 1.0 53 1.0 54 1.0
 14 15 2.0 31 1.0
 15 16 1.0 20 1.0
 16 17 1.0 55 1.0 56 1.0
 17 18 1.0 57 1.0 58 1.0
 18 19 1.0
 19 59 1.0 60 1.0 61 1.0
 20 21 1.0 22 1.0 29 1.0
 21 62 1.0 63 1.0 64 1.0
 22 23 1.0 65 1.0 66 1.0
 23 24 1.0 67 1.0 68 1.0
 24 25 1.0 26 1.0 69 1.0
 25 70 1.0
 26 27 1.0 28 1.0 29 1.0
 27 71 1.0 72 1.0 73 1.0
 28 74 1.0 75 1.0 76 1.0
 29 30 1.0 77 1.0
 30 31 1.0 78 1.0 79 1.0
 31 80 1.0 81 1.0
 32
 33
 34
 35
 36
 37
 38
 39
 40
 41
 42
 43
 44
 45
 46
 47
 48
 49
 50
 51
 52
 53
 54
 55
 56
 57
 58
 59
 60
 61
 62
 63
 64
 65
 66
 67
 68
 69
 70
 71
 72
 73
 74
 75
 76
 77
 78
 79
 80
 81

