%chk=C:\Users\respondus\Documents\Lepidolite.chk
# pbepbe/3-21g/auto

Title Card Required

0 1
 K                  0.00000000    4.50500000    0.00000000
 Na                 0.00000000    4.50500000    0.00000000
 Rb                 0.00000000    4.50500000    0.00000000
 Ca                 0.00000000    4.50500000    0.00000000
 Li                -0.82224204    0.00000000    4.97754388
 Al                -0.82224204    0.00000000    4.97754388
 Li                -0.82224204    2.95798300    4.97754388
 Al                -0.82224204    2.95798300    4.97754388
 Al                 0.03967969    1.51818500    2.30958036
 Si                 0.03967969    1.51818500    2.30958036
 O                 -0.17518913    0.00000000    1.73417629
 O                  1.41424667    2.08131000    1.67245474
 O                  0.09082882    1.59296800    3.92330008
 F                 -0.08462036    4.50500000    3.99696773
 O                 -0.08462036    4.50500000    3.99696773
 K                  2.60000000    0.00000000    0.00000000
 Na                 2.60000000    0.00000000    0.00000000
 Rb                 2.60000000    0.00000000    0.00000000
 Ca                 2.60000000    0.00000000    0.00000000
 Li                 1.77775796    4.50500000    4.97754388
 Al                 1.77775796    4.50500000    4.97754388
 Li                -0.82224204    6.05201700    4.97754388
 Li                 1.77775796    7.46298300    4.97754388
 Li                 1.77775796    1.54701700    4.97754388
 Al                -0.82224204    6.05201700    4.97754388
 Al                 1.77775796    7.46298300    4.97754388
 Al                 1.77775796    1.54701700    4.97754388
 Al                 3.51583623    1.51818500    7.64550739
 Al                 3.51583623    7.49181500    7.64550739
 Al                 0.03967969    7.49181500    2.30958036
 Al                 2.63967969    6.02318500    2.30958036
 Al                 0.91583623    6.02318500    7.64550739
 Al                 0.91583623    2.98681500    7.64550739
 Al                 2.63967969    2.98681500    2.30958036
 Si                 3.51583623    1.51818500    7.64550739
 Si                 3.51583623    7.49181500    7.64550739
 Si                 0.03967969    7.49181500    2.30958036
 Si                 2.63967969    6.02318500    2.30958036
 Si                 0.91583623    6.02318500    7.64550739
 Si                 0.91583623    2.98681500    7.64550739
 Si                 2.63967969    2.98681500    2.30958036
 O                  3.73070505    0.00000000    8.22091146
 O                  2.42481087    4.50500000    1.73417629
 O                  1.13070505    4.50500000    8.22091146
 O                  2.14126925    2.08131000    8.28263301
 O                  2.14126925    6.92869000    8.28263301
 O                  1.41424667    6.92869000    1.67245474
 O                  4.01424667    6.58631000    1.67245474
 O                 -0.45873075    6.58631000    8.28263301
 O                 -0.45873075    2.42369000    8.28263301
 O                  4.01424667    2.42369000    1.67245474
 O                  3.46468710    1.59296800    6.03178767
 O                  3.46468710    7.41703200    6.03178767
 O                  0.09082882    7.41703200    3.92330008
 O                  2.69082882    6.09796800    3.92330008
 O                  0.86468710    6.09796800    6.03178767
 O                  0.86468710    2.91203200    6.03178767
 O                  2.69082882    2.91203200    3.92330008
 F                  3.64013628    4.50500000    5.95812002
 F                  2.51537964    0.00000000    3.99696773
 F                  1.04013628    0.00000000    5.95812002
 O                  3.64013628    4.50500000    5.95812002
 O                  2.51537964    0.00000000    3.99696773
 O                  1.04013628    0.00000000    5.95812002
 Tv                 5.20000000    0.00000000    0.00000000
 Tv                 0.00000000    9.01000000    0.00000000
 Tv                -1.64448408    0.00000000    9.95508775

