%chk=C:\Users\respondus\Documents\nanoring.chk
# hf/3-21g geom=connectivity

MOL2  : Made in Gabedit. mol2 file

0 1
 C                  1.21130000    3.72810000    0.00000000
 H                  1.28007174    3.93460181   -1.04762944
 C                  2.30410000    3.17130000    0.71100000
 C                  3.17130000    2.30410000    0.00000000
 H                  3.38456969    2.40719891   -1.04344940
 C                  3.72810000    1.21130000    0.71100000
 C                  3.91990000    0.00000000    0.00000000
 H                  4.19556492   -0.06279580   -1.03197167
 C                  3.72810000   -1.21130000    0.71100000
 C                  3.17130000   -2.30410000    0.00000000
 C                  2.30410000   -3.17130000    0.71100000
 C                  1.21130000   -3.72810000    0.00000000
 H                  1.31115200   -4.05188201   -1.01493585
 C                  0.00000000   -3.91990000    0.71100000
 C                 -1.21130000   -3.72810000    0.00000000
 H                 -1.28275582   -4.05232326   -1.01718894
 C                 -2.30410000   -3.17130000    0.71100000
 C                 -3.17130000   -2.30410000    0.00000000
 H                 -3.38751918   -2.52943145   -1.02341341
 C                 -3.72810000   -1.21130000    0.71100000
 C                 -3.91990000    0.00000000    0.00000000
 H                 -4.19871501   -0.06284750   -1.03112190
 C                 -3.72810000    1.21130000    0.71100000
 C                 -3.17130000    2.30410000    0.00000000
 H                 -3.40675047    2.40617196   -1.03877061
 C                 -2.30410000    3.17130000    0.71100000
 C                 -1.21130000    3.72810000    0.00000000
 H                 -1.31385876    3.93377517   -1.04502604
 C                  0.00000000    3.91990000    0.71100000
 C                  0.00000000    3.91990000    2.13300000
 C                  1.21130000    3.72810000    2.84400000
 H                  1.27591079    3.93599158    3.89161946
 C                  2.30410000    3.17130000    2.13300000
 C                  3.17130000    2.30410000    2.84400000
 H                  3.38039308    2.40832276    3.88818279
 C                  3.72810000    1.21130000    2.13300000
 C                  3.91990000    0.00000000    2.84400000
 C                  3.72810000   -1.21130000    2.13300000
 C                  3.17130000   -2.30410000    2.84400000
 H                  3.39948776   -2.52960234    3.86477375
 C                  2.30410000   -3.17130000    2.13300000
 C                  1.21130000   -3.72810000    2.84400000
 H                  1.30685722   -4.05276676    3.85906665
 C                  0.00000000   -3.91990000    2.13300000
 C                 -1.21130000   -3.72810000    2.84400000
 H                 -1.28704275   -4.05307466    3.86063883
 C                 -2.30410000   -3.17130000    2.13300000
 C                 -3.17130000   -2.30410000    2.84400000
 H                 -3.39178152   -2.52976436    3.86643019
 C                 -3.72810000   -1.21130000    2.13300000
 C                 -3.91990000    0.00000000    2.84400000
 H                 -4.20294623   -0.06265004    3.87398049
 C                 -3.72810000    1.21130000    2.13300000
 C                 -3.17130000    2.30410000    2.84400000
 H                 -3.41094991    2.40690802    3.88173717
 C                 -2.30410000    3.17130000    2.13300000
 C                 -1.21130000    3.72810000    2.84400000
 H                 -1.31803170    3.93496104    3.88837390
 H                  4.16320755    0.00195483    3.75361980
 H                  3.36777872   -2.44646367   -0.90980177

 1 2 1.0 3 1.0 29 2.0
 2
 3 4 2.0 33 1.0
 4 5 1.0 6 1.0
 5
 6 7 2.0 36 1.0
 7 8 1.0 9 2.0
 8
 9 10 1.0 38 1.0
 10 11 1.0 60 1.0
 11 12 2.0 41 1.0
 12 13 1.0 14 1.0
 13
 14 15 2.0 44 1.0
 15 16 1.0 17 1.0
 16
 17 18 2.0 47 1.0
 18 19 1.0 20 1.0
 19
 20 21 2.0 50 1.0
 21 22 1.0 23 1.0
 22
 23 24 2.0 53 1.0
 24 25 1.0 26 1.0
 25
 26 27 2.0 56 1.0
 27 28 1.0 29 1.0
 28
 29 30 1.0
 30 31 2.0 57 1.0
 31 32 1.0 33 1.0
 32
 33 34 2.0
 34 35 1.0 36 2.0
 35
 36 37 1.0
 37 38 1.0 59 1.0
 38 39 2.0
 39 40 1.0 41 1.0
 40
 41 42 2.0
 42 43 1.0 44 1.0
 43
 44 45 2.0
 45 46 1.0 47 1.0
 46
 47 48 2.0
 48 49 1.0 50 1.0
 49
 50 51 2.0
 51 52 1.0 53 1.0
 52
 53 54 2.0
 54 55 1.0 56 1.0
 55
 56 57 2.0
 57 58 1.0
 58
 59
 60

