%chk=C:\Users\respondus\Documents\Oxalate-Weddellite.chk
# pbepbe/3-21g/auto

Title Card Required

0 1
 C                  5.52241440    2.98759650    0.77469210
 Ca                 2.46554030    3.72490810    0.00000000
 O                  4.40902440    3.04079180    1.34559530
 O                  2.91337050    5.73272140    1.32352430
 O                  1.84327900    1.41647950    0.00000000
 O                  0.23752320    4.75170110    0.00000000
 O                  0.00000000    0.00000000    5.02483100
 O                  0.00000000    0.00000000    1.76568000
 H                  2.05358600    0.87834100    0.77248500
 H                  4.32985000    0.22267800    0.84605500
 C                  9.38340350    5.52241440    0.77469210
 C                  6.84858560    9.38340350    0.77469210
 C                  2.98759650    6.84858560    0.77469210
 C                  6.84858560    9.38340350    6.58230790
 C                  2.98759650    6.84858560    6.58230790
 C                  5.52241440    2.98759650    6.58230790
 C                  9.38340350    5.52241440    6.58230790
 C                 11.70791440    9.17309650    4.45319210
 C                  3.19790350   11.70791440    4.45319210
 C                  0.66308560    3.19790350    4.45319210
 C                  9.17309650    0.66308560    4.45319210
 C                  0.66308560    3.19790350    2.90380790
 C                  9.17309650    0.66308560    2.90380790
 C                 11.70791440    9.17309650    2.90380790
 C                  3.19790350   11.70791440    2.90380790
 Ca                 8.64609190    2.46554030    0.00000000
 Ca                 9.90545970    8.64609190    0.00000000
 Ca                 3.72490810    9.90545970    0.00000000
 Ca                 8.65104030    9.91040810    3.67850000
 Ca                 2.46059190    8.65104030    3.67850000
 Ca                 3.71995970    2.46059190    3.67850000
 Ca                 9.91040810    3.71995970    3.67850000
 O                  9.33020820    4.40902440    1.34559530
 O                  7.96197560    9.33020820    1.34559530
 O                  3.04079180    7.96197560    1.34559530
 O                  7.96197560    9.33020820    6.01140470
 O                  3.04079180    7.96197560    6.01140470
 O                  4.40902440    3.04079180    6.01140470
 O                  9.33020820    4.40902440    6.01140470
 O                 10.59452440    9.22629180    5.02409530
 O                  3.14470820   10.59452440    5.02409530
 O                  1.77647560    3.14470820    5.02409530
 O                  9.22629180    1.77647560    5.02409530
 O                  1.77647560    3.14470820    2.33290470
 O                  9.22629180    1.77647560    2.33290470
 O                 10.59452440    9.22629180    2.33290470
 O                  3.14470820   10.59452440    2.33290470
 O                  6.63827860    2.91337050    1.32352430
 O                  9.45762950    6.63827860    1.32352430
 O                  5.73272140    9.45762950    1.32352430
 O                  9.45762950    6.63827860    6.03347570
 O                  5.73272140    9.45762950    6.03347570
 O                  2.91337050    5.73272140    6.03347570
 O                  6.63827860    2.91337050    6.03347570
 O                  9.09887050   11.91822140    5.00202430
 O                  0.45277860    9.09887050    5.00202430
 O                  3.27212950    0.45277860    5.00202430
 O                 11.91822140    3.27212950    5.00202430
 O                  3.27212950    0.45277860    2.35497570
 O                 11.91822140    3.27212950    2.35497570
 O                  9.09887050   11.91822140    2.35497570
 O                  0.45277860    9.09887050    2.35497570
 O                 10.95452050    1.84327900    0.00000000
 O                 10.52772100   10.95452050    0.00000000
 O                  1.41647950   10.52772100    0.00000000
 O                  8.02877900    7.60197950    3.67850000
 O                  4.76902050    8.02877900    3.67850000
 O                  4.34222100    4.76902050    3.67850000
 O                  7.60197950    4.34222100    3.67850000
 O                  7.61929890    0.23752320    0.00000000
 O                 12.13347680    7.61929890    0.00000000
 O                  4.75170110   12.13347680    0.00000000
 O                  6.42302320   10.93720110    3.67850000
 O                  1.43379890    6.42302320    3.67850000
 O                  5.94797680    1.43379890    3.67850000
 O                 10.93720110    5.94797680    3.67850000
 O                  0.00000000    0.00000000    2.33216900
 O                  6.18550000    6.18550000    1.34633100
 O                  6.18550000    6.18550000    6.01066900
 O                  0.00000000    0.00000000    5.59132000
 O                  6.18550000    6.18550000    5.44418000
 O                  6.18550000    6.18550000    1.91282000
 H                 11.49265900    2.05358600    0.77248500
 H                 10.31741400   11.49265900    0.77248500
 H                  0.87834100   10.31741400    0.77248500
 H                 10.31741400   11.49265900    6.58451500
 H                  0.87834100   10.31741400    6.58451500
 H                  2.05358600    0.87834100    6.58451500
 H                 11.49265900    2.05358600    6.58451500
 H                  8.23908600    7.06384100    4.45098500
 H                  5.30715900    8.23908600    4.45098500
 H                  4.13191400    5.30715900    4.45098500
 H                  7.06384100    4.13191400    4.45098500
 H                  4.13191400    5.30715900    2.90601500
 H                  7.06384100    4.13191400    2.90601500
 H                  8.23908600    7.06384100    2.90601500
 H                  5.30715900    8.23908600    2.90601500
 H                 12.14832200    4.32985000    0.84605500
 H                  8.04115000   12.14832200    0.84605500
 H                  0.22267800    8.04115000    0.84605500
 H                  8.04115000   12.14832200    6.51094500
 H                  0.22267800    8.04115000    6.51094500
 H                  4.32985000    0.22267800    6.51094500
 H                 12.14832200    4.32985000    6.51094500
 H                 10.51535000    6.40817800    4.52455500
 H                  5.96282200   10.51535000    4.52455500
 H                  1.85565000    5.96282200    4.52455500
 H                  6.40817800    1.85565000    4.52455500
 H                  1.85565000    5.96282200    2.83244500
 H                  6.40817800    1.85565000    2.83244500
 H                 10.51535000    6.40817800    2.83244500
 H                  5.96282200   10.51535000    2.83244500
 Tv                12.37100000    0.00000000    0.00000000
 Tv                 0.00000000   12.37100000    0.00000000
 Tv                 0.00000000    0.00000000    7.35700000

