%rwf=temp_file_name.rwf
%nosave
%mem=64GB
%nprocshared=20
%chk=temp_file_name.chk
# opt 6-31+g(d) geom=connectivity m062x

Generated from MOL2

0 1
 C   -11.791500   0.228500  -4.009600
 C   -10.308200   0.086700  -3.571600
 C   -9.991100  -1.385900  -3.186900
 C   -9.352200   0.644900  -4.673700
 C   -7.869100   0.767500  -4.229000
 C   -6.974000   1.492800  -5.275600
 C   -5.447600   1.505300  -4.929900
 C   -4.615200   1.942300  -6.171300
 C   -5.125400   2.391500  -3.680200
 C   -3.671600   2.267800  -3.144100
 C   -3.499800   2.921300  -1.741800
 C   -2.049400   2.890300  -1.152000
 C   -1.965500   3.835000   0.085200
 C   -1.577800   1.435800  -0.808700
 C   -0.094700   1.308900  -0.356500
 C    0.364400  -0.164300  -0.168700
 C    1.770500  -0.263600   0.259100
 C    2.075000  -0.308200   1.695300
 C    2.743800  -0.338500  -0.677700
 C    4.166700  -0.463100  -0.410200
 O    4.913100  -0.652600  -1.609700
 H   -12.427000   0.289300  -3.126200
 H   -11.909500   1.133900  -4.605100
 H   -12.079000  -0.638000  -4.605100
 H   -10.145300   0.685700  -2.675700
 H   -9.970500  -1.481500  -2.101300
 H   -10.760300  -2.041700  -3.594900
 H   -9.020200  -1.667000  -3.594900
 H   -9.358500  -0.093600  -5.475300
 H   -9.685700   1.664100  -4.868900
 H   -7.873400   1.404100  -3.344200
 H   -7.490400  -0.252500  -4.164600
 H   -7.065600   0.910400  -6.192400
 H   -7.290400   2.535700  -5.258600
 H   -5.159000   0.487400  -4.667900
 H   -4.260300   1.057900  -6.700400
 H   -5.240400   2.537500  -6.836800
 H   -3.762100   2.537500  -5.845500
 H   -5.223800   3.423600  -4.016700
 H   -5.762900   2.016200  -2.879700
 H   -3.489100   1.201900  -3.007000
 H   -3.047100   2.844300  -3.826600
 H   -3.734700   3.976000  -1.885000
 H   -4.103300   2.315400  -1.065900
 H   -1.361700   3.258300  -1.913400
 H   -1.903800   3.237700   0.994900
 H   -1.079100   4.463900   0.002600
 H   -2.854900   4.463900   0.123100
 H   -2.170200   1.129900   0.053600
 H   -1.644500   0.876600  -1.741900
 H    0.504000   1.707300  -1.175600
 H   -0.041500   1.767600   0.630800
 H   -0.214400  -0.578300   0.657000
 H    0.330900  -0.638700  -1.149500
 H    2.143800  -1.346400   2.020000
 H    3.024100   0.194400   1.881200
 H    1.282900   0.194400   2.250400
 H    2.362700  -0.296300  -1.698100
 H    4.493000   0.493600  -0.002300
 H    4.296600  -1.376100   0.170900
 H    5.017100  -1.592200  -1.776800

 1 2 1.0 22 1.0 23 1.0 24 1.0
 2 3 1.0 4 1.0 25 1.0
 3 26 1.0 27 1.0 28 1.0
 4 5 1.0 29 1.0 30 1.0
 5 6 1.0 31 1.0 32 1.0
 6 7 1.0 33 1.0 34 1.0
 7 8 1.0 9 1.0 35 1.0
 8 36 1.0 37 1.0 38 1.0
 9 10 1.0 39 1.0 40 1.0
 10 11 1.0 41 1.0 42 1.0
 11 12 1.0 43 1.0 44 1.0
 12 13 1.0 14 1.0 45 1.0
 13 46 1.0 47 1.0 48 1.0
 14 15 1.0 49 1.0 50 1.0
 15 16 1.0 51 1.0 52 1.0
 16 17 1.0 53 1.0 54 1.0
 17 18 1.0 19 2.0
 18 55 1.0 56 1.0 57 1.0
 19 20 1.0 58 1.0
 20 21 1.0 59 1.0 60 1.0
 21 61 1.0
 22
 23
 24
 25
 26
 27
 28
 29
 30
 31
 32
 33
 34
 35
 36
 37
 38
 39
 40
 41
 42
 43
 44
 45
 46
 47
 48
 49
 50
 51
 52
 53
 54
 55
 56
 57
 58
 59
 60
 61

