%rwf=temp_file_name.rwf
%nosave
%mem=64GB
%nprocshared=20
%chk=temp_file_name.chk
# opt 6-31+g(d) geom=connectivity m062x

Generated from MOL2

0 1
 C   -8.151800  -0.413000  -6.203000
 C   -8.100300   0.863900  -5.464800
 O   -9.196700   1.448300  -5.290000
 C   -6.816900   1.474700  -4.992800
 C   -6.857900   3.024000  -4.775700
 C   -5.918600   3.348200  -3.587700
 C   -5.156700   2.032400  -3.344100
 C   -4.402200   1.824700  -1.989200
 C   -3.384500   2.963500  -1.680300
 C   -2.629300   2.698300  -0.356100
 C   -2.004300   1.364600  -0.326200
 C   -0.695300   1.265700   0.005800
 C   -0.029600   0.057500   0.121500
 O    1.222300   0.036600   0.180700
 C   -0.783200  -1.209300   0.172400
 C   -1.947800  -1.127300  -0.843500
 C   -2.845700   0.164900  -0.647900
 C   -3.798900  -0.091500   0.579900
 C   -3.644800   0.441900  -2.000500
 C   -4.557600  -0.740100  -2.494100
 C   -5.405200  -0.422600  -3.766900
 C   -6.210400   0.916100  -3.652400
 C   -7.345200   0.752000  -2.570100
 H   -8.185300  -1.241000  -5.494900
 H   -9.043400  -0.434600  -6.829700
 H   -7.264900  -0.506400  -6.829700
 H   -6.239800   1.169200  -5.865500
 H   -6.425200   3.488900  -5.661600
 H   -7.869600   3.282900  -4.463500
 H   -5.197800   4.094400  -3.921900
 H   -6.537800   3.542500  -2.711900
 H   -4.287700   2.039000  -4.002000
 H   -5.158900   1.851500  -1.205100
 H   -2.634800   2.931900  -2.470900
 H   -3.971000   3.868400  -1.521300
 H   -1.800200   3.404600  -0.313800
 H   -3.374100   2.683900   0.439600
 H   -0.156200   2.195500   0.187100
 H   -0.097300  -1.984700  -0.168900
 H   -1.215700  -1.265500   1.171300
 H   -1.477000  -1.032000  -1.822000
 H   -2.586400  -1.983700  -0.627000
 H   -3.916100  -1.164600   0.731000
 H   -3.367000   0.356400   1.474900
 H   -4.773000   0.356400   0.383300
 H   -2.875100   0.509300  -2.769300
 H   -3.875900  -1.537800  -2.789400
 H   -5.281200  -0.909000  -1.696600
 H   -4.688400  -0.274800  -4.574600
 H   -6.149000  -1.216300  -3.836800
 H   -6.908500   0.815100  -1.573400
 H   -8.083200   1.544400  -2.694400
 H   -7.828300  -0.217200  -2.694400

 1 2 1.0 24 1.0 25 1.0 26 1.0
 2 3 2.0 4 1.0
 3
 4 5 1.0 22 1.0 27 1.0
 5 6 1.0 28 1.0 29 1.0
 6 7 1.0 30 1.0 31 1.0
 7 8 1.0 22 1.0 32 1.0
 8 9 1.0 19 1.0 33 1.0
 9 10 1.0 34 1.0 35 1.0
 10 11 1.0 36 1.0 37 1.0
 11 12 2.0 17 1.0
 12 13 1.0 38 1.0
 13 14 2.0 15 1.0
 14
 15 16 1.0 39 1.0 40 1.0
 16 17 1.0 41 1.0 42 1.0
 17 18 1.0 19 1.0
 18 43 1.0 44 1.0 45 1.0
 19 20 1.0 46 1.0
 20 21 1.0 47 1.0 48 1.0
 21 22 1.0 49 1.0 50 1.0
 22 23 1.0
 23 51 1.0 52 1.0 53 1.0
 24
 25
 26
 27
 28
 29
 30
 31
 32
 33
 34
 35
 36
 37
 38
 39
 40
 41
 42
 43
 44
 45
 46
 47
 48
 49
 50
 51
 52
 53

