%rwf=temp_file_name.rwf
%nosave
%mem=64GB
%nprocshared=20
%chk=temp_file_name.chk
# opt 6-31+g(d) geom=connectivity m062x

Generated from MOL2

0 1
 C    2.669000  -9.770500   1.707100
 C    3.218800  -8.646100   0.949400
 C    4.511500  -8.597300   0.550700
 C    5.512600  -9.617900   0.822100
 O    6.794800  -9.225400   0.341400
 C    2.360700  -7.642500   0.609300
 C    2.393500  -6.413400   1.152300
 C    1.506300  -5.447400   0.808200
 C    1.831500  -4.305500   0.162900
 C    3.192900  -3.998500  -0.277200
 C    0.860100  -3.396000  -0.107000
 C    0.574200  -2.390000   0.737400
 C   -0.356800  -1.428300   0.462500
 C    0.047800  -0.262800  -0.125000
 C    1.449400  -0.017200  -0.509100
 C   -0.874600   0.853900  -0.393200
 C   -2.369200   0.657800  -0.031000
 C   -2.532500  -0.360700   1.115800
 C   -1.787000  -1.707000   0.803800
 C   -1.985400  -2.617000   2.073400
 C   -2.466200  -2.438800  -0.407400
 H    2.766300  -9.571600   2.774400
 H    1.616100  -9.897900   1.455700
 H    3.215100  -10.679700   1.455700
 H    4.756900  -7.697300  -0.013200
 H    5.606100  -9.686500   1.905900
 H    5.230700  -10.497100   0.242700
 H    7.374900  -9.047900   1.085400
 H    1.598800  -7.835400  -0.145900
 H    3.162000  -6.193600   1.893400
 H    0.458800  -5.599300   1.068400
 H    3.832500  -3.854300   0.593500
 H    3.575900  -4.824500  -0.876600
 H    3.184400  -3.088100  -0.876600
 H    0.290500  -3.476100  -1.032900
 H    1.118200  -2.352700   1.681200
 H    2.058700   0.089500   0.388400
 H    1.816600  -0.856400  -1.099900
 H    1.509500   0.896800  -1.099900
 H   -0.511000   1.654300   0.251200
 H   -0.839600   0.968000  -1.476600
 H   -2.722700   1.613800   0.355100
 H   -2.844600   0.213800  -0.905600
 H   -2.035100   0.078400   1.980600
 H   -3.595900  -0.595600   1.159700
 H   -1.939500  -3.665600   1.779500
 H   -1.197700  -2.407600   2.797100
 H   -2.956300  -2.407600   2.522300
 H   -2.389100  -3.517300  -0.269900
 H   -3.516900  -2.153600  -0.461300
 H   -1.964400  -2.153600  -1.332000

 1 2 1.0 22 1.0 23 1.0 24 1.0
 2 3 2.0 6 1.0
 3 4 1.0 25 1.0
 4 5 1.0 26 1.0 27 1.0
 5 28 1.0
 6 7 2.0 29 1.0
 7 8 1.0 30 1.0
 8 9 2.0 31 1.0
 9 10 1.0 11 1.0
 10 32 1.0 33 1.0 34 1.0
 11 12 2.0 35 1.0
 12 13 1.0 36 1.0
 13 14 2.0 19 1.0
 14 15 1.0 16 1.0
 15 37 1.0 38 1.0 39 1.0
 16 17 1.0 40 1.0 41 1.0
 17 18 1.0 42 1.0 43 1.0
 18 19 1.0 44 1.0 45 1.0
 19 20 1.0 21 1.0
 20 46 1.0 47 1.0 48 1.0
 21 49 1.0 50 1.0 51 1.0
 22
 23
 24
 25
 26
 27
 28
 29
 30
 31
 32
 33
 34
 35
 36
 37
 38
 39
 40
 41
 42
 43
 44
 45
 46
 47
 48
 49
 50
 51

