%rwf=temp_file_name.rwf
%nosave
%mem=64GB
%nprocshared=20
%chk=temp_file_name.chk
# opt 6-31+g(d) geom=connectivity m062x

Generated from MOL2

0 1
 C    2.560800   4.625400   3.150600
 C    2.197000   3.365900   2.443500
 C    0.850800   3.007900   2.151300
 C   -0.293700   3.871100   2.559600
 C    0.592900   1.794600   1.461900
 C    1.622000   0.908500   1.036200
 N    1.432200  -0.297400   0.364400
 C    0.097400  -0.820200   0.080300
 C   -0.461400  -0.351800  -1.298600
 O   -0.399300   1.071300  -1.410900
 C   -1.935600  -0.781000  -1.577200
 O   -2.784300  -0.228300  -0.571300
 C   -2.173300  -2.317300  -1.694400
 O   -1.330700  -2.874100  -2.705300
 C   -3.635900  -2.679200  -2.058300
 O   -4.525500  -2.376000  -0.986800
 C    2.528700  -1.034900  -0.052500
 N    2.430800  -2.206200  -0.749800
 C    3.507500  -2.931100  -1.146500
 O    3.355300  -4.001000  -1.775500
 N    4.755500  -2.489800  -0.855400
 C    4.950200  -1.335000  -0.174500
 O    6.122100  -0.965800   0.064400
 C    3.838300  -0.580700   0.245900
 N    3.995400   0.569100   0.927400
 C    2.950600   1.321500   1.329100
 C    3.233700   2.507200   2.023900
 H    2.514200   4.464000   4.227500
 H    3.572200   4.920000   2.870800
 H    1.862200   5.413900   2.870800
 H   -0.347900   3.911900   3.647500
 H   -0.149200   4.876800   2.165000
 H   -1.221000   3.455700   2.165000
 H   -0.443300   1.531200   1.249500
 H    0.228200  -1.900900   0.025100
 H   -0.540400  -0.387100   0.850900
 H    0.199400  -0.758700  -2.063900
 H   -0.382300   1.461100  -0.533800
 H   -2.248800  -0.333000  -2.520200
 H   -2.440100  -0.452400   0.296400
 H   -1.886400  -2.781000  -0.750600
 H   -1.367800  -3.832300  -2.660800
 H   -3.948700  -2.027500  -2.874100
 H   -3.694300  -3.761600  -2.172300
 H   -4.848200  -3.192300  -0.598100
 H    5.554900  -3.031500  -1.151300
 H    4.270600   2.764200   2.240200

 1 2 1.0 28 1.0 29 1.0 30 1.0
 2 3 1.5 27 1.5
 3 4 1.0 5 1.5
 4 31 1.0 32 1.0 33 1.0
 5 6 1.5 34 1.0
 6 7 1.5 26 1.5
 7 8 1.0 17 1.5
 8 9 1.0 35 1.0 36 1.0
 9 10 1.0 11 1.0 37 1.0
 10 38 1.0
 11 12 1.0 13 1.0 39 1.0
 12 40 1.0
 13 14 1.0 15 1.0 41 1.0
 14 42 1.0
 15 16 1.0 43 1.0 44 1.0
 16 45 1.0
 17 18 1.5 24 1.0
 18 19 1.5
 19 20 2.0 21 1.5
 20
 21 22 1.5 46 1.0
 22 23 2.0 24 1.5
 23
 24 25 1.5
 25 26 1.5
 26 27 1.5
 27 47 1.0
 28
 29
 30
 31
 32
 33
 34
 35
 36
 37
 38
 39
 40
 41
 42
 43
 44
 45
 46
 47

