%rwf=temp_file_name.rwf
%nosave
%mem=64GB
%nprocshared=20
%chk=temp_file_name.chk
# opt 6-31+g(d) geom=connectivity m062x

Generated from MOL2

0 1
 C    2.841600  -3.864900  -20.520000
 C    2.126300  -3.935300  -19.244200
 C    0.836300  -4.629900  -19.212200
 C    2.666000  -3.349100  -18.150100
 C    2.061300  -3.326800  -16.823900
 C    2.895400  -2.579700  -15.744600
 C    2.209300  -2.606300  -14.445600
 C    2.520000  -3.699400  -13.518800
 C    1.318900  -1.630400  -14.152200
 C    0.529200  -1.559200  -12.932700
 C   -0.356500  -0.286800  -12.813100
 C   -1.115400  -0.300800  -11.556200
 C   -0.533800   0.368400  -10.389300
 C   -2.308700  -0.939000  -11.521500
 C   -3.131800  -1.122000  -10.336700
 C   -4.453600  -1.903400  -10.597000
 C   -5.155900  -2.172500  -9.353100
 C   -4.836600  -3.096100  -8.414600
 C   -3.779700  -4.101900  -8.563700
 C   -5.556300  -3.067100  -7.132900
 C   -5.230400  -1.770400  -6.329900
 C   -5.741000  -1.822700  -4.970900
 C   -5.131600  -2.339400  -3.876500
 C   -3.803500  -2.962800  -3.886300
 C   -5.850800  -2.310100  -2.593000
 C   -6.151200  -0.881300  -2.046400
 C   -7.005100  -0.916700  -0.862900
 C   -8.357800  -0.990300  -0.849800
 C   -9.086800  -1.044800   0.417700
 C   -9.150800  -1.010800  -2.079900
 H    3.043200  -4.873900  -20.879600
 H    2.230700  -3.334200  -21.250200
 H    3.783300  -3.334200  -20.379800
 H    0.536300  -4.791400  -18.176800
 H    0.084600  -4.023800  -19.717900
 H    0.928500  -5.591000  -19.717900
 H    3.628000  -2.875200  -18.345100
 H    1.137500  -2.763700  -16.956700
 H    2.022900  -4.374600  -16.525900
 H    3.818500  -3.140400  -15.597600
 H    2.935800  -1.528800  -16.031000
 H    2.419400  -3.345500  -12.492800
 H    1.829700  -4.525900  -13.687400
 H    3.541800  -4.039300  -13.687400
 H    1.234300  -0.871000  -14.929600
 H   -0.146100  -2.412400  -12.996900
 H    1.268800  -1.508500  -12.133500
 H    0.310600   0.572200  -12.741100
 H   -1.104000  -0.331400  -13.605200
 H   -0.180200  -0.379900  -9.680000
 H    0.302200   0.991500  -10.707100
 H   -1.290800   0.991500  -9.913000
 H   -2.621100  -1.323300  -12.492500
 H   -2.522000  -1.735900  -9.673800
 H   -3.410500  -0.110900  -10.040100
 H   -5.117300  -1.250500  -11.164000
 H   -4.185900  -2.883600  -10.991400
 H   -6.046000  -1.602300  -9.087100
 H   -3.442100  -4.423100  -7.578300
 H   -4.169200  -4.959700  -9.111800
 H   -2.942200  -3.670300  -9.111800
 H   -6.613200  -3.030900  -7.396900
 H   -5.165100  -3.910600  -6.564000
 H   -4.147300  -1.717100  -6.219800
 H   -5.771500  -0.949400  -6.800400
 H   -6.724700  -1.414800  -4.738400
 H   -3.468400  -3.120100  -2.861100
 H   -3.855900  -3.921400  -4.402600
 H   -3.099600  -2.310100  -4.402600
 H   -6.813800  -2.772800  -2.809100
 H   -5.166900  -2.779700  -1.886100
 H   -5.207500  -0.458900  -1.701300
 H   -6.737800  -0.359300  -2.802400
 H   -6.577900  -0.883900   0.139300
 H   -9.248800  -2.085300   0.699300
 H   -8.505900  -0.544800   1.192800
 H   -10.048900  -0.544800   0.305300
 H   -9.339900  -2.043400  -2.373200
 H   -10.099500  -0.502100  -1.909100
 H   -8.603500  -0.502100  -2.873500

 1 2 1.0 31 1.0 32 1.0 33 1.0
 2 3 1.0 4 2.0
 3 34 1.0 35 1.0 36 1.0
 4 5 1.0 37 1.0
 5 6 1.0 38 1.0 39 1.0
 6 7 1.0 40 1.0 41 1.0
 7 8 1.0 9 2.0
 8 42 1.0 43 1.0 44 1.0
 9 10 1.0 45 1.0
 10 11 1.0 46 1.0 47 1.0
 11 12 1.0 48 1.0 49 1.0
 12 13 1.0 14 2.0
 13 50 1.0 51 1.0 52 1.0
 14 15 1.0 53 1.0
 15 16 1.0 54 1.0 55 1.0
 16 17 1.0 56 1.0 57 1.0
 17 18 2.0 58 1.0
 18 19 1.0 20 1.0
 19 59 1.0 60 1.0 61 1.0
 20 21 1.0 62 1.0 63 1.0
 21 22 1.0 64 1.0 65 1.0
 22 23 2.0 66 1.0
 23 24 1.0 25 1.0
 24 67 1.0 68 1.0 69 1.0
 25 26 1.0 70 1.0 71 1.0
 26 27 1.0 72 1.0 73 1.0
 27 28 2.0 74 1.0
 28 29 1.0 30 1.0
 29 75 1.0 76 1.0 77 1.0
 30 78 1.0 79 1.0 80 1.0
 31
 32
 33
 34
 35
 36
 37
 38
 39
 40
 41
 42
 43
 44
 45
 46
 47
 48
 49
 50
 51
 52
 53
 54
 55
 56
 57
 58
 59
 60
 61
 62
 63
 64
 65
 66
 67
 68
 69
 70
 71
 72
 73
 74
 75
 76
 77
 78
 79
 80

