%rwf=temp_file_name.rwf
%nosave
%mem=64GB
%nprocshared=20
%chk=temp_file_name.chk
# opt 6-31+g(d) geom=connectivity m062x

Generated from MOL2

0 1
 C   -7.306000   2.201600   5.713400
 C   -7.736900   2.045400   4.237700
 C   -8.126400   0.690300   3.868600
 C   -8.525800   0.303200   2.643300
 C   -8.610500   1.148000   1.457200
 C   -8.116600   0.492400   0.254500
 C   -6.829500   0.309300  -0.098300
 C   -5.635400   0.703700   0.644800
 C   -5.465400   0.067600   1.944300
 C   -5.458100  -1.250600   2.216400
 C   -5.549900  -2.336400   1.251000
 C   -4.580300  -3.391100   1.502900
 C   -3.246900  -3.289200   1.346600
 C   -2.540300  -2.094300   0.893300
 C   -0.998000  -2.255000   0.878400
 C   -0.264300  -0.990100   0.362000
 C    1.275800  -1.181900   0.350100
 C    1.958300  -0.027500  -0.257700
 O    2.386500  -0.104100  -1.536400
 O    2.130400   1.038200   0.379300
 H   -7.175600   1.215900   6.160100
 H   -6.365000   2.749500   5.761100
 H   -8.073600   2.749500   6.259900
 H   -8.643300   2.636900   4.108600
 H   -6.858000   2.254700   3.627800
 H   -8.118000  -0.126200   4.590700
 H   -8.795500  -0.752400   2.609600
 H   -9.672800   1.324300   1.288100
 H   -7.940500   1.988500   1.637500
 H   -8.805500   0.082000  -0.483800
 H   -6.748000  -0.197400  -1.059900
 H   -4.792300   0.363800   0.043500
 H   -5.761100   1.765600   0.856300
 H   -5.322800   0.665400   2.844600
 H   -5.372600  -1.451200   3.284400
 H   -6.531500  -2.787700   1.395400
 H   -5.284500  -1.906200   0.285300
 H   -4.890300  -4.376500   1.850700
 H   -2.719100  -4.209500   1.596700
 H   -2.857300  -1.960200  -0.141000
 H   -2.774900  -1.333900   1.638100
 H   -0.697500  -2.373600   1.919500
 H   -0.784200  -3.043100   0.156400
 H   -0.565100  -0.866000  -0.678300
 H   -0.468700  -0.201500   1.086200
 H    1.608000  -1.200600   1.388100
 H    1.492300  -2.024400  -0.306700
 H    2.471600  -1.025900  -1.790600

 1 2 1.0 21 1.0 22 1.0 23 1.0
 2 3 1.0 24 1.0 25 1.0
 3 4 2.0 26 1.0
 4 5 1.0 27 1.0
 5 6 1.0 28 1.0 29 1.0
 6 7 2.0 30 1.0
 7 8 1.0 31 1.0
 8 9 1.0 32 1.0 33 1.0
 9 10 2.0 34 1.0
 10 11 1.0 35 1.0
 11 12 1.0 36 1.0 37 1.0
 12 13 2.0 38 1.0
 13 14 1.0 39 1.0
 14 15 1.0 40 1.0 41 1.0
 15 16 1.0 42 1.0 43 1.0
 16 17 1.0 44 1.0 45 1.0
 17 18 1.0 46 1.0 47 1.0
 18 19 1.0 20 2.0
 19 48 1.0
 20
 21
 22
 23
 24
 25
 26
 27
 28
 29
 30
 31
 32
 33
 34
 35
 36
 37
 38
 39
 40
 41
 42
 43
 44
 45
 46
 47
 48

