%rwf=temp_file_name.rwf
%nosave
%mem=64GB
%nprocshared=20
%chk=temp_file_name.chk
# opt 6-31+g(d) geom=connectivity m062x

Generated from MOL2

0 1
 C    1.826100  -5.563900   0.623500
 C    1.866600  -4.120800   0.373900
 O    2.756100  -3.428900   0.922400
 O    0.906300  -3.562000  -0.421700
 C    0.753200  -2.191300  -0.803800
 C   -0.105300  -1.310400   0.016200
 C    0.011400   0.038200  -0.170300
 C    1.296400   0.714200  -0.412000
 C   -1.180500   0.900100  -0.207900
 C   -2.572100   0.198400  -0.042200
 C   -2.548400  -1.361900   0.155200
 O   -3.557600  -1.620400   1.154700
 C   -3.001700  -2.168000  -1.163200
 O   -4.384100  -1.730200  -1.266900
 C   -5.528200  -2.339300  -0.813600
 O   -5.551000  -3.588400  -0.692100
 C   -6.619500  -1.534100  -0.380100
 C   -7.704200  -2.099300   0.337500
 C   -8.718600  -1.289500   0.879800
 C   -8.680800   0.103800   0.697900
 C   -7.634100   0.683300  -0.038600
 C   -6.613800  -0.126600  -0.569500
 C   -2.299400  -2.025000  -2.604500
 C   -3.388400  -2.207600  -3.769700
 C   -4.345100  -3.426400  -3.693100
 O   -3.974700  -3.904600  -4.983000
 C   -3.030700  -2.842000  -5.148400
 C   -1.611600  -3.382800  -5.405200
 C   -0.596500  -2.689800  -4.476900
 O    0.694400  -3.221900  -4.800700
 C   -0.905900  -2.773400  -2.913600
 C   -0.945200  -4.302700  -2.571400
 C    0.277700  -2.087500  -2.222700
 O    0.962000  -1.264900  -2.884600
 O   -3.920000  -0.910100  -4.133400
 C   -5.147200  -0.316500  -4.118200
 C   -5.232400   1.026100  -4.709100
 O   -6.172000  -0.858100  -3.647900
 C   -1.215900  -1.789300   0.890700
 C   -1.270300  -3.306900   1.320100
 C   -1.025200  -1.101500   2.318500
 O   -1.103700   1.587100  -1.466500
 C   -1.868100   2.641400  -1.830800
 O   -2.950600   2.423300  -2.417300
 C   -1.356300   4.012700  -1.670900
 O   -2.487100   4.875500  -1.497900
 C   -0.471300   4.432400  -2.886800
 N   -0.370300   5.858200  -2.912300
 C    0.011700   6.614900  -3.973100
 O    0.424900   6.071000  -5.027100
 C   -0.077200   8.025100  -3.890700
 C    0.865100   8.846100  -4.554000
 C    0.751400   10.246800  -4.509000
 C   -0.302700   10.849900  -3.800300
 C   -1.238400   10.049400  -3.124700
 C   -1.125500   8.648700  -3.166200
 C    0.892200   3.805300  -2.872900
 C    1.262200   2.828400  -3.830500
 C    2.548900   2.256200  -3.820400
 C    3.484500   2.642900  -2.844200
 C    3.135600   3.610100  -1.886900
 C    1.852100   4.184800  -1.901900
 H    1.821000  -5.746700   1.698100
 H    0.924000  -5.984300   0.179100
 H    2.703200  -6.034300   0.179100
 H    1.773800  -1.857700  -0.616400
 H    1.762900   0.959600   0.542000
 H    1.953200   0.054100  -0.978600
 H    1.124500   1.629400  -0.978600
 H   -1.083300   1.593700   0.627300
 H   -2.986700   0.600200   0.882400
 H   -3.089300   0.362000  -0.987700
 H   -3.174200  -1.522200   2.029400
 H   -2.827900  -3.229900  -0.989500
 H   -7.759500  -3.179200   0.475300
 H   -9.535300  -1.742400   1.441900
 H   -9.460800   0.733100   1.126600
 H   -7.613600   1.761400  -0.198000
 H   -5.808600   0.342500  -1.134900
 H   -1.920900  -1.003300  -2.573300
 H   -4.010800  -4.139800  -2.939900
 H   -5.387300  -3.108000  -3.717600
 H   -3.109900  -2.188300  -6.016900
 H   -1.623900  -4.435300  -5.122100
 H   -1.348800  -3.095300  -6.423200
 H   -0.569200  -1.629700  -4.728900
 H    1.171700  -3.418600  -3.991300
 H   -0.948500  -4.432900  -1.489200
 H   -1.846800  -4.746400  -2.993600
 H   -0.067500  -4.792100  -2.993600
 H   -5.279600   1.770500  -3.914300
 H   -4.352100   1.208200  -5.325600
 H   -6.128500   1.095600  -5.325600
 H   -1.272800  -3.376900   2.407800
 H   -2.177300  -3.764100   0.924500
 H   -0.398400  -3.827900   0.924500
 H   -0.923200  -1.872300   3.082500
 H   -0.129000  -0.481200   2.306200
 H   -1.893300  -0.481200   2.541900
 H   -0.776400   4.080500  -0.750500
 H   -2.652800   5.001900  -0.560800
 H   -0.926000   4.135200  -3.831800
 H   -0.594900   6.392600  -2.085200
 H    1.688900   8.393900  -5.106400
 H    1.483300   10.867700  -5.025700
 H   -0.394400   11.935700  -3.774600
 H   -2.051900   10.515100  -2.568500
 H   -1.856500   8.041400  -2.632500
 H    0.544800   2.511700  -4.587500
 H    2.821200   1.512700  -4.569600
 H    4.477600   2.193900  -2.829600
 H    3.861000   3.914600  -1.132400
 H    1.598000   4.933700  -1.151700

 1 2 1.0 63 1.0 64 1.0 65 1.0
 2 3 2.0 4 1.0
 3
 4 5 1.0
 5 6 1.0 33 1.0 66 1.0
 6 7 2.0 39 1.0
 7 8 1.0 9 1.0
 8 67 1.0 68 1.0 69 1.0
 9 10 1.0 42 1.0 70 1.0
 10 11 1.0 71 1.0 72 1.0
 11 12 1.0 13 1.0 39 1.0
 12 73 1.0
 13 14 1.0 23 1.0 74 1.0
 14 15 1.0
 15 16 2.0 17 1.0
 16
 17 18 1.5 22 1.5
 18 19 1.5 75 1.0
 19 20 1.5 76 1.0
 20 21 1.5 77 1.0
 21 22 1.5 78 1.0
 22 79 1.0
 23 24 1.0 31 1.0 80 1.0
 24 25 1.0 27 1.0 35 1.0
 25 26 1.0 81 1.0 82 1.0
 26 27 1.0
 27 28 1.0 83 1.0
 28 29 1.0 84 1.0 85 1.0
 29 30 1.0 31 1.0 86 1.0
 30 87 1.0
 31 32 1.0 33 1.0
 32 88 1.0 89 1.0 90 1.0
 33 34 2.0
 34
 35 36 1.0
 36 37 1.0 38 2.0
 37 91 1.0 92 1.0 93 1.0
 38
 39 40 1.0 41 1.0
 40 94 1.0 95 1.0 96 1.0
 41 97 1.0 98 1.0 99 1.0
 42 43 1.0
 43 44 2.0 45 1.0
 44
 45 46 1.0 47 1.0 100 1.0
 46 101 1.0
 47 48 1.0 57 1.0 102 1.0
 48 49 1.0 103 1.0
 49 50 2.0 51 1.0
 50
 51 52 1.5 56 1.5
 52 53 1.5 104 1.0
 53 54 1.5 105 1.0
 54 55 1.5 106 1.0
 55 56 1.5 107 1.0
 56 108 1.0
 57 58 1.5 62 1.5
 58 59 1.5 109 1.0
 59 60 1.5 110 1.0
 60 61 1.5 111 1.0
 61 62 1.5 112 1.0
 62 113 1.0
 63
 64
 65
 66
 67
 68
 69
 70
 71
 72
 73
 74
 75
 76
 77
 78
 79
 80
 81
 82
 83
 84
 85
 86
 87
 88
 89
 90
 91
 92
 93
 94
 95
 96
 97
 98
 99
 100
 101
 102
 103
 104
 105
 106
 107
 108
 109
 110
 111
 112
 113

