%rwf=temp_file_name.rwf
%nosave
%mem=64GB
%nprocshared=20
%chk=temp_file_name.chk
# opt 6-31+g(d) geom=connectivity m062x

Generated from MOL2

0 1
 C   -7.394900  -0.776900   2.739200
 C   -6.179400  -0.852000   3.743500
 C   -5.435900   0.527200   3.775100
 C   -4.655000   0.813900   2.453800
 C   -3.685600  -0.347700   2.018700
 C   -4.417300  -1.746200   2.043400
 C   -3.400100  -2.880200   1.737500
 C   -2.662200  -2.625500   0.404700
 C   -2.039200  -1.293700   0.346700
 C   -0.740300  -1.202900  -0.027700
 C   -0.070500  -0.004100  -0.184800
 O    1.164900  -0.005200  -0.393700
 C   -0.796800   1.277500  -0.149700
 C   -1.953900   1.190900   0.873600
 C   -2.871500  -0.087300   0.672600
 C   -3.829200   0.181200  -0.544600
 C   -5.112300  -1.950600   3.426800
 C   -5.834900  -3.279000   3.741200
 C   -6.740100  -2.930700   4.954100
 C   -6.677000  -1.384700   5.126300
 O   -7.922900  -0.833600   5.558400
 H   -8.327300  -0.719300   3.300800
 H   -7.293500   0.108500   2.111600
 H   -7.403300  -1.668100   2.111600
 H   -6.212000   1.289900   3.838400
 H   -4.683200   0.449200   4.559500
 H   -5.412700   0.880400   1.673100
 H   -4.017700   1.671500   2.669300
 H   -2.914500  -0.368200   2.788900
 H   -5.187800  -1.790000   1.273700
 H   -2.642400  -2.835900   2.519800
 H   -3.983800  -3.789600   1.594900
 H   -1.832400  -3.330900   0.360400
 H   -3.417000  -2.622000  -0.381600
 H   -0.209800  -2.137300  -0.210900
 H   -0.084100   2.014400   0.220700
 H   -1.239800   1.396900  -1.138400
 H   -1.474900   1.077200   1.846000
 H   -2.584300   2.057600   0.674500
 H   -4.159100  -0.769300  -0.963900
 H   -4.695700   0.749500  -0.206700
 H   -3.296800   0.749500  -1.307300
 H   -4.214100  -1.929800   4.044000
 H   -6.480100  -3.517200   2.895600
 H   -5.085500  -3.997000   4.074100
 H   -7.763500  -3.187200   4.680300
 H   -6.284500  -3.376500   5.838300
 H   -6.071400  -1.039600   5.964300
 H   -7.951600  -0.821000   6.517900

 1 2 1.0 22 1.0 23 1.0 24 1.0
 2 3 1.0 17 1.0 20 1.0
 3 4 1.0 25 1.0 26 1.0
 4 5 1.0 27 1.0 28 1.0
 5 6 1.0 15 1.0 29 1.0
 6 7 1.0 17 1.0 30 1.0
 7 8 1.0 31 1.0 32 1.0
 8 9 1.0 33 1.0 34 1.0
 9 10 2.0 15 1.0
 10 11 1.0 35 1.0
 11 12 2.0 13 1.0
 12
 13 14 1.0 36 1.0 37 1.0
 14 15 1.0 38 1.0 39 1.0
 15 16 1.0
 16 40 1.0 41 1.0 42 1.0
 17 18 1.0 43 1.0
 18 19 1.0 44 1.0 45 1.0
 19 20 1.0 46 1.0 47 1.0
 20 21 1.0 48 1.0
 21 49 1.0
 22
 23
 24
 25
 26
 27
 28
 29
 30
 31
 32
 33
 34
 35
 36
 37
 38
 39
 40
 41
 42
 43
 44
 45
 46
 47
 48
 49

