%rwf=temp_file_name.rwf
%nosave
%mem=64GB
%nprocshared=20
%chk=temp_file_name.chk
# opt 6-31+g(d) geom=connectivity m062x

Generated from MOL2

0 1
 C   -1.174000  -0.993300  -0.035700
 N   -0.886800  -1.785400  -1.282000
 C   -2.130900  -2.340600  -1.920000
 C   -1.878600  -3.414000  -2.921400
 C   -1.150700  -4.572000  -2.555600
 C   -0.935800  -5.609500  -3.483400
 C   -1.433100  -5.496000  -4.794300
 C   -2.148700  -4.347400  -5.175600
 C   -2.374900  -3.316900  -4.244200
 C   -0.012800  -1.043700  -2.256200
 C    1.374100  -0.799100  -1.771100
 C    2.185900  -1.883700  -1.359500
 C    3.510500  -1.669200  -0.932100
 C    4.036200  -0.364900  -0.896400
 C    3.238900   0.723400  -1.291900
 C    1.919700   0.507100  -1.731800
 C   -1.713400  -1.802000   1.093000
 C   -0.993800  -2.922900   1.573100
 C   -1.475900  -3.674400   2.662200
 C   -2.692000  -3.323900   3.276200
 C   -3.423200  -2.219900   2.803900
 C   -2.934300  -1.461000   1.724200
 H   -0.210600  -0.617200   0.308500
 H   -1.968200  -0.295500  -0.301000
 H   -2.692400  -2.816900  -1.116300
 H   -2.573400  -1.516700  -2.479900
 H   -0.750400  -4.666100  -1.546100
 H   -0.384000  -6.501400  -3.186500
 H   -1.264200  -6.297100  -5.513800
 H   -2.528000  -4.255800  -6.193300
 H   -2.939400  -2.436000  -4.549900
 H    0.091500  -1.697100  -3.122300
 H   -0.461200  -0.056600  -2.369100
 H    1.785700  -2.897500  -1.371700
 H    4.129500  -2.513500  -0.628800
 H    5.060300  -0.197900  -0.562500
 H    3.643500   1.734900  -1.257600
 H    1.315400   1.358500  -2.044800
 H   -0.056200  -3.211200   1.097900
 H   -0.907100  -4.528200   3.030400
 H   -3.067300  -3.907200   4.117000
 H   -4.369100  -1.952200   3.274700
 H   -3.506200  -0.601700   1.373800

 1 2 1.0 17 1.0 23 1.0 24 1.0
 2 3 1.0 10 1.0
 3 4 1.0 25 1.0 26 1.0
 4 5 1.5 9 1.5
 5 6 1.5 27 1.0
 6 7 1.5 28 1.0
 7 8 1.5 29 1.0
 8 9 1.5 30 1.0
 9 31 1.0
 10 11 1.0 32 1.0 33 1.0
 11 12 1.5 16 1.5
 12 13 1.5 34 1.0
 13 14 1.5 35 1.0
 14 15 1.5 36 1.0
 15 16 1.5 37 1.0
 16 38 1.0
 17 18 1.5 22 1.5
 18 19 1.5 39 1.0
 19 20 1.5 40 1.0
 20 21 1.5 41 1.0
 21 22 1.5 42 1.0
 22 43 1.0
 23
 24
 25
 26
 27
 28
 29
 30
 31
 32
 33
 34
 35
 36
 37
 38
 39
 40
 41
 42
 43

