%rwf=temp_file_name.rwf
%nosave
%mem=64GB
%nprocshared=20
%chk=temp_file_name.chk
# opt 6-31+g(d) geom=connectivity m062x

Generated from MOL2

0 1
 C   -8.048500  -3.658500  -5.329500
 C   -7.437100  -2.507100  -6.187000
 C   -8.509400  -2.044300  -7.221000
 C   -6.057700  -2.911700  -6.843300
 C   -5.417100  -1.770800  -7.688900
 C   -5.074100  -3.371900  -5.854100
 C   -4.040900  -4.180800  -6.154600
 C   -3.090900  -4.707600  -5.165400
 C   -2.867400  -6.220800  -5.464000
 C   -1.758700  -3.861200  -5.130300
 C   -2.013000  -2.341000  -4.864900
 C   -0.808800  -1.788200  -4.071300
 C    0.241800  -2.925100  -4.118800
 C    1.396900  -2.997200  -3.191600
 C    2.331100  -4.093500  -3.530900
 C    1.629500  -5.472900  -3.684700
 C    0.328600  -5.406900  -4.536400
 C   -0.625000  -4.235000  -4.094200
 C   -1.225000  -4.539500  -2.668600
 C    1.538900  -2.136700  -2.152400
 C    2.493000  -2.131600  -1.167100
 C    2.512000  -1.331700  -0.072400
 C    3.606500  -1.401500   0.911700
 C    4.301500  -0.017500   1.086600
 O    5.127500   0.245100  -0.047500
 C    3.256200   1.124400   1.270400
 C    2.091500   1.017700   0.244100
 C    1.577700  -0.355700   0.203300
 C    0.292500  -0.646400   0.478900
 H   -7.926000  -3.427900  -4.271300
 H   -9.109300  -3.758600  -5.559200
 H   -7.537200  -4.593400  -5.559200
 H   -7.201400  -1.660600  -5.542000
 H   -9.384600  -1.666500  -6.692400
 H   -8.093700  -1.254300  -7.846500
 H   -8.799100  -2.888600  -7.846500
 H   -6.252400  -3.775000  -7.479600
 H   -4.994700  -1.018300  -7.023000
 H   -4.628300  -2.183600  -8.317600
 H   -6.180300  -1.312200  -8.317600
 H   -5.114600  -3.087500  -4.802600
 H   -3.972300  -4.413400  -7.217300
 H   -3.563100  -4.598300  -4.189000
 H   -2.786500  -6.768400  -4.525100
 H   -3.710100  -6.606200  -6.038000
 H   -1.949200  -6.346100  -6.038000
 H   -1.400500  -4.098600  -6.132000
 H   -2.012600  -1.838500  -5.832100
 H   -2.883100  -2.266800  -4.212600
 H   -0.407500  -0.938800  -4.624100
 H   -1.121600  -1.665000  -3.034500
 H    0.890600  -2.716600  -4.969500
 H    2.731100  -3.830700  -4.510200
 H    2.998500  -4.171600  -2.672600
 H    2.322800  -6.101400  -4.243600
 H    1.317300  -5.764100  -2.681800
 H    0.648400  -5.174800  -5.552300
 H   -0.209000  -6.332900  -4.332500
 H   -1.286300  -5.618000  -2.523000
 H   -0.581400  -4.105500  -1.903300
 H   -2.222000  -4.105500  -2.593800
 H    0.789200  -1.347100  -2.102800
 H    3.320200  -2.834800  -1.263800
 H    3.127300  -1.647300   1.859400
 H    4.340300  -2.081900   0.479500
 H    4.988600  -0.033000   1.932600
 H    5.410800  -0.585600  -0.436300
 H    2.810100   0.975000   2.253600
 H    3.777100   2.054700   1.043900
 H    1.267600   1.627600   0.614600
 H    2.505600   1.205000  -0.746600
 H   -0.436100   0.156600   0.590400
 H   -0.019600  -1.684800   0.590400

 1 2 1.0 30 1.0 31 1.0 32 1.0
 2 3 1.0 4 1.0 33 1.0
 3 34 1.0 35 1.0 36 1.0
 4 5 1.0 6 1.0 37 1.0
 5 38 1.0 39 1.0 40 1.0
 6 7 2.0 41 1.0
 7 8 1.0 42 1.0
 8 9 1.0 10 1.0 43 1.0
 9 44 1.0 45 1.0 46 1.0
 10 11 1.0 18 1.0 47 1.0
 11 12 1.0 48 1.0 49 1.0
 12 13 1.0 50 1.0 51 1.0
 13 14 1.0 18 1.0 52 1.0
 14 15 1.0 20 2.0
 15 16 1.0 53 1.0 54 1.0
 16 17 1.0 55 1.0 56 1.0
 17 18 1.0 57 1.0 58 1.0
 18 19 1.0
 19 59 1.0 60 1.0 61 1.0
 20 21 1.0 62 1.0
 21 22 2.0 63 1.0
 22 23 1.0 28 1.0
 23 24 1.0 64 1.0 65 1.0
 24 25 1.0 26 1.0 66 1.0
 25 67 1.0
 26 27 1.0 68 1.0 69 1.0
 27 28 1.0 70 1.0 71 1.0
 28 29 2.0
 29 72 1.0 73 1.0
 30
 31
 32
 33
 34
 35
 36
 37
 38
 39
 40
 41
 42
 43
 44
 45
 46
 47
 48
 49
 50
 51
 52
 53
 54
 55
 56
 57
 58
 59
 60
 61
 62
 63
 64
 65
 66
 67
 68
 69
 70
 71
 72
 73

