%rwf=temp_file_name.rwf
%nosave
%mem=64GB
%nprocshared=20
%chk=temp_file_name.chk
# opt 6-31+g(d) geom=connectivity m062x

Generated from MOL2

0 1
 C   -7.911700  -0.901700  -7.654600
 C   -6.760900  -1.121500  -6.632600
 C   -7.242100  -0.742500  -5.202000
 C   -6.182800  -2.573700  -6.735100
 C   -4.861300  -2.795800  -5.945400
 C   -4.130100  -4.139800  -6.255200
 C   -3.105000  -4.689600  -5.184600
 C   -2.869500  -6.208300  -5.477100
 C   -1.735100  -3.888900  -5.110200
 C   -1.917500  -2.364100  -4.821300
 C   -0.756600  -1.871600  -3.940600
 C    0.282200  -3.007600  -4.037400
 C    1.433000  -3.095800  -3.104900
 C    2.354700  -4.197200  -3.447800
 C    1.639200  -5.564200  -3.662600
 C    0.353000  -5.465600  -4.540000
 C   -0.607100  -4.306700  -4.074000
 C   -1.220300  -4.652800  -2.663000
 C    1.590800  -2.222100  -2.078300
 C    2.544800  -2.195200  -1.095300
 C    2.563100  -1.365000  -0.022100
 C    3.665400  -1.393400   0.956100
 C    4.334700   0.007300   1.113100
 O    5.166400   0.269100  -0.018000
 C    3.271600   1.137000   1.273800
 C    2.111700   0.985600   0.247100
 C    1.617500  -0.396000   0.242500
 C    0.342100  -0.699600   0.548700
 H   -8.844200  -0.723700  -7.119000
 H   -7.682000  -0.039500  -8.280600
 H   -8.015800  -1.787900  -8.280600
 H   -5.934600  -0.452300  -6.872500
 H   -7.434200  -1.650700  -4.630800
 H   -6.471000  -0.155600  -4.702800
 H   -8.158100  -0.155600  -5.270300
 H   -6.919700  -3.221900  -6.260800
 H   -5.924700  -2.718300  -7.784200
 H   -4.185500  -2.008600  -6.279700
 H   -5.153800  -2.854100  -4.897000
 H   -4.925800  -4.883500  -6.297300
 H   -3.532200  -3.930600  -7.142200
 H   -3.549600  -4.560700  -4.197700
 H   -2.785300  -6.750900  -4.535500
 H   -3.708900  -6.602500  -6.049800
 H   -1.950000  -6.329700  -6.049800
 H   -1.394000  -4.135200  -6.115700
 H   -1.825900  -1.844200  -5.774900
 H   -2.825000  -2.256900  -4.227100
 H   -0.331500  -0.984600  -4.410200
 H   -1.111900  -1.826000  -2.911100
 H    0.941200  -2.794800  -4.879200
 H    2.787200  -3.911700  -4.406700
 H    2.995000  -4.308700  -2.572700
 H    2.339000  -6.181200  -4.226300
 H    1.304100  -5.883200  -2.675700
 H    0.692700  -5.198000  -5.540500
 H   -0.190800  -6.396600  -4.379900
 H   -1.271600  -5.735100  -2.544800
 H   -0.590200  -4.231200  -1.879800
 H   -2.222700  -4.231200  -2.589200
 H    0.844700  -1.428500  -2.037500
 H    3.369500  -2.903400  -1.174700
 H    3.196600  -1.637700   1.909300
 H    4.411200  -2.063200   0.528000
 H    5.014900   0.014200   1.964700
 H    5.451100  -0.562000  -0.405200
 H    2.826500   1.001200   2.259500
 H    3.777000   2.070900   1.027900
 H    1.278100   1.593700   0.598200
 H    2.526600   1.151500  -0.747100
 H   -0.392800   0.095800   0.672700
 H    0.044400  -1.740800   0.672700

 1 2 1.0 29 1.0 30 1.0 31 1.0
 2 3 1.0 4 1.0 32 1.0
 3 33 1.0 34 1.0 35 1.0
 4 5 1.0 36 1.0 37 1.0
 5 6 1.0 38 1.0 39 1.0
 6 7 1.0 40 1.0 41 1.0
 7 8 1.0 9 1.0 42 1.0
 8 43 1.0 44 1.0 45 1.0
 9 10 1.0 17 1.0 46 1.0
 10 11 1.0 47 1.0 48 1.0
 11 12 1.0 49 1.0 50 1.0
 12 13 1.0 17 1.0 51 1.0
 13 14 1.0 19 2.0
 14 15 1.0 52 1.0 53 1.0
 15 16 1.0 54 1.0 55 1.0
 16 17 1.0 56 1.0 57 1.0
 17 18 1.0
 18 58 1.0 59 1.0 60 1.0
 19 20 1.0 61 1.0
 20 21 2.0 62 1.0
 21 22 1.0 27 1.0
 22 23 1.0 63 1.0 64 1.0
 23 24 1.0 25 1.0 65 1.0
 24 66 1.0
 25 26 1.0 67 1.0 68 1.0
 26 27 1.0 69 1.0 70 1.0
 27 28 2.0
 28 71 1.0 72 1.0
 29
 30
 31
 32
 33
 34
 35
 36
 37
 38
 39
 40
 41
 42
 43
 44
 45
 46
 47
 48
 49
 50
 51
 52
 53
 54
 55
 56
 57
 58
 59
 60
 61
 62
 63
 64
 65
 66
 67
 68
 69
 70
 71
 72

