%rwf=temp_file_name.rwf
%nosave
%mem=64GB
%nprocshared=20
%chk=temp_file_name.chk
# opt 6-31+g(d) geom=connectivity m062x

Generated from MOL2

0 1
 C   -2.083900  -2.238200  -1.140500
 C   -2.847200  -0.985500  -0.904800
 C   -2.212100   0.280000  -0.936800
 C   -0.805700   0.647600  -1.211400
 C    0.082000   0.511900   0.046700
 O    1.438800   0.789500  -0.282000
 S   -3.457100   1.445300  -0.535700
 C   -4.729300   0.257200  -0.375500
 N   -4.209100  -0.971700  -0.638600
 C   -5.076500  -2.137100  -0.611400
 C   -5.263800  -2.737400  -1.964200
 C   -5.932400  -2.065200  -3.018900
 N   -6.527700  -0.867000  -2.868100
 N   -6.003000  -2.629900  -4.251800
 C   -5.463800  -3.846700  -4.521600
 C   -5.531800  -4.425400  -5.872500
 N   -4.857200  -4.531500  -3.519400
 C   -4.757300  -4.022000  -2.267200
 H   -1.812500  -2.683700  -0.183500
 H   -2.699700  -2.938000  -1.705500
 H   -1.179700  -2.011800  -1.705500
 H   -0.449700  -0.086300  -1.934400
 H   -0.828000   1.705200  -1.474300
 H   -0.207100   1.292500   0.750400
 H    0.071300  -0.532900   0.357100
 H    1.948600   0.893900   0.524800
 H   -5.789900   0.281400  -0.125200
 H   -4.552500  -2.880000  -0.010100
 H   -6.052800  -1.769900  -0.294900
 H   -5.967600  -0.028400  -2.811500
 H   -7.534300  -0.806800  -2.811500
 H   -5.528200  -5.513100  -5.802500
 H   -6.447600  -4.095800  -6.363300
 H   -4.669900  -4.095800  -6.452800
 H   -4.273900  -4.639900  -1.510600

 1 2 1.0 19 1.0 20 1.0 21 1.0
 2 3 1.5 9 1.5
 3 4 1.0 7 1.5
 4 5 1.0 22 1.0 23 1.0
 5 6 1.0 24 1.0 25 1.0
 6 26 1.0
 7 8 1.5
 8 9 1.5 27 1.0
 9 10 1.0
 10 11 1.0 28 1.0 29 1.0
 11 12 1.5 18 1.5
 12 13 1.0 14 1.5
 13 30 1.0 31 1.0
 14 15 1.5
 15 16 1.0 17 1.5
 16 32 1.0 33 1.0 34 1.0
 17 18 1.5
 18 35 1.0
 19
 20
 21
 22
 23
 24
 25
 26
 27
 28
 29
 30
 31
 32
 33
 34
 35

