%rwf=temp_file_name.rwf
%nosave
%mem=64GB
%nprocshared=20
%chk=temp_file_name.chk
# opt 6-31+g(d) geom=connectivity m062x

Generated from MOL2

0 1
 C    4.209300  -5.712400   4.495500
 C    4.389200  -4.419200   3.711500
 C    3.231400  -4.161600   2.882000
 C    2.677500  -2.939300   2.870800
 C    1.791500  -2.531000   1.938200
 C    2.041700  -1.487200   1.113100
 C    3.295900  -0.725100   1.124300
 C    1.096900  -1.115300   0.216900
 C    0.181800  -0.175900   0.508100
 C   -0.789800   0.237700  -0.359200
 C   -0.600300   1.402000  -1.048600
 C    0.644000   2.185900  -0.934400
 C   -1.632800   1.981400  -1.925600
 C   -2.897800   1.129400  -2.200600
 O   -2.747900   0.340100  -3.378700
 C   -3.235100   0.250300  -0.976000
 C   -2.015600  -0.614000  -0.486400
 C   -1.730700  -1.786400  -1.492600
 C   -2.463600  -1.272900   0.874300
 C    5.537000  -3.589800   3.773800
 C    6.775900  -3.860500   4.541900
 C    7.829300  -2.987800   4.748700
 C    8.998100  -3.304000   5.371200
 C    10.170200  -2.635900   5.241700
 C    10.342400  -1.422200   4.442700
 C    11.261600  -3.146900   5.867700
 C    12.011100  -4.111000   5.304800
 C    13.038000  -4.694300   5.964400
 C    13.070300  -6.001900   6.310900
 C    11.975400  -6.925000   5.980800
 C    14.141400  -6.465700   7.023800
 C    14.908300  -7.513300   6.654000
 C    15.993400  -8.153600   7.289700
 C    16.569700  -9.238700   6.660600
 C    16.040600  -9.865800   5.427400
 C    17.790100  -9.913000   7.142400
 C    18.633000  -9.140000   8.169400
 O    19.396100  -8.115700   7.534900
 C    17.664700  -8.597500   9.228400
 C    16.527400  -7.669500   8.629200
 C    17.138800  -6.225100   8.494500
 C    15.428400  -7.679400   9.764000
 H    4.239200  -5.496900   5.563500
 H    3.248400  -6.160200   4.242000
 H    5.011400  -6.405500   4.242000
 H    2.761900  -4.911900   2.245800
 H    2.961600  -2.242500   3.659300
 H    0.843500  -3.061300   1.848700
 H    3.599700  -0.540500   2.154700
 H    4.072000  -1.295000   0.613300
 H    3.147600   0.226200   0.613300
 H    1.072200  -1.585200  -0.766300
 H    0.230200   0.274100   1.499600
 H    0.883200   2.336600   0.118300
 H    1.458600   1.647300  -1.418600
 H    0.509700   3.153200  -1.418600
 H   -1.974400   2.862900  -1.383100
 H   -1.129600   2.093500  -2.886000
 H   -3.743200   1.769700  -2.452600
 H   -2.777500  -0.590800  -3.146100
 H   -3.462900   0.945500  -0.168000
 H   -3.992900  -0.454200  -1.318800
 H   -1.509300  -2.697100  -0.936100
 H   -2.607300  -1.948000  -2.119900
 H   -0.877700  -1.527600  -2.119900
 H   -2.432500  -2.358300   0.779900
 H   -1.788600  -0.957900   1.670100
 H   -3.479300  -0.957900   1.113500
 H    5.461300  -2.674700   3.186600
 H    6.932900  -4.828800   5.017300
 H    7.729800  -1.963200   4.390300
 H    8.995400  -4.170100   6.033100
 H    10.464000  -0.565200   5.105200
 H    11.226900  -1.523600   3.813800
 H    9.464600  -1.273600   3.813800
 H    11.544400  -2.772000   6.851300
 H    11.780200  -4.427800   4.287700
 H    13.891900  -4.072600   6.233200
 H    11.528300  -7.302000   6.900600
 H    11.219300  -6.398400   5.398500
 H    12.366700  -7.759200   5.398500
 H    14.403200  -5.963500   7.955100
 H    14.601500  -7.906100   5.684700
 H    16.082400  -10.950700   5.524800
 H    15.007200  -9.554200   5.275900
 H    16.642900  -9.554200   4.574100
 H    17.425200  -10.801700   7.657300
 H    18.413600  -10.015300   6.254200
 H    19.422900  -9.738200   8.623400
 H    19.807800  -7.563000   8.203200
 H    17.165100  -9.475700   9.637400
 H    18.272100  -7.965100   9.875800
 H    17.314200  -5.810800   9.487300
 H    18.082400  -6.279200   7.951500
 H    16.443200  -5.585300   7.951500
 H    15.180100  -8.709400   10.020400
 H    15.812700  -7.167900   10.646500
 H    14.534000  -7.167900   9.408200

 1 2 1.0 43 1.0 44 1.0 45 1.0
 2 3 1.0 20 2.0
 3 4 2.0 46 1.0
 4 5 1.0 47 1.0
 5 6 2.0 48 1.0
 6 7 1.0 8 1.0
 7 49 1.0 50 1.0 51 1.0
 8 9 2.0 52 1.0
 9 10 1.0 53 1.0
 10 11 2.0 17 1.0
 11 12 1.0 13 1.0
 12 54 1.0 55 1.0 56 1.0
 13 14 1.0 57 1.0 58 1.0
 14 15 1.0 16 1.0 59 1.0
 15 60 1.0
 16 17 1.0 61 1.0 62 1.0
 17 18 1.0 19 1.0
 18 63 1.0 64 1.0 65 1.0
 19 66 1.0 67 1.0 68 1.0
 20 21 1.0 69 1.0
 21 22 2.0 70 1.0
 22 23 1.0 71 1.0
 23 24 2.0 72 1.0
 24 25 1.0 26 1.0
 25 73 1.0 74 1.0 75 1.0
 26 27 2.0 76 1.0
 27 28 1.0 77 1.0
 28 29 2.0 78 1.0
 29 30 1.0 31 1.0
 30 79 1.0 80 1.0 81 1.0
 31 32 2.0 82 1.0
 32 33 1.0 83 1.0
 33 34 2.0 40 1.0
 34 35 1.0 36 1.0
 35 84 1.0 85 1.0 86 1.0
 36 37 1.0 87 1.0 88 1.0
 37 38 1.0 39 1.0 89 1.0
 38 90 1.0
 39 40 1.0 91 1.0 92 1.0
 40 41 1.0 42 1.0
 41 93 1.0 94 1.0 95 1.0
 42 96 1.0 97 1.0 98 1.0
 43
 44
 45
 46
 47
 48
 49
 50
 51
 52
 53
 54
 55
 56
 57
 58
 59
 60
 61
 62
 63
 64
 65
 66
 67
 68
 69
 70
 71
 72
 73
 74
 75
 76
 77
 78
 79
 80
 81
 82
 83
 84
 85
 86
 87
 88
 89
 90
 91
 92
 93
 94
 95
 96
 97
 98

