%chk=C:\Users\respondus\Documents\Zn2SiO5H2-Hemimorphite.chk
# pbepbe/3-21g/auto

Title Card Required

0 1
 Zn                 1.71144120    1.72666980    0.00000000
 Si                 0.00000000    1.57983320    2.60249600
 O                  1.32712050    2.23899020    3.26144000
 O                  0.00000000    1.80812660    0.97740800
 O                  2.58558240    0.00000000    0.20275200
 O                  0.00000000    0.00000000    2.97779200
 O                  4.18650000    0.00000000    2.58611200
 Zn                 6.66155880    8.99133020    0.00000000
 Zn                 6.66155880    1.72666980    0.00000000
 Zn                 1.71144120    8.99133020    0.00000000
 Zn                 5.89794120    7.08566980    2.56000000
 Zn                 2.47505880    3.63233020    2.56000000
 Zn                 2.47505880    7.08566980    2.56000000
 Zn                 5.89794120    3.63233020    2.56000000
 Si                 0.00000000    9.13816680    2.60249600
 Si                 4.18650000    6.93883320    0.04249600
 Si                 4.18650000    3.77916680    0.04249600
 O                  7.04587950    8.47900980    3.26144000
 O                  7.04587950    2.23899020    3.26144000
 O                  1.32712050    8.47900980    3.26144000
 O                  5.51362050    7.59799020    0.70144000
 O                  2.85937950    3.12000980    0.70144000
 O                  2.85937950    7.59799020    0.70144000
 O                  5.51362050    3.12000980    0.70144000
 O                  0.00000000    8.90987340    0.97740800
 O                  4.18650000    7.16712660    3.53740800
 O                  4.18650000    3.55087340    3.53740800
 O                  5.78741760    0.00000000    0.20275200
 O                  6.77208240    5.35900000    2.76275200
 O                  1.60091760    5.35900000    2.76275200
 O                  4.18650000    5.35900000    0.41779200
 O                  0.00000000    5.35900000    0.02611200
 Tv                 8.37300000    0.00000000    0.00000000
 Tv                 0.00000000   10.71800000    0.00000000
 Tv                 0.00000000    0.00000000    5.12000000

