%chk=hexaaminocobalt-ii.chk
# hf/3-21g geom=connectivity

Title Card Required

0 2
 Co                 0.67196532    0.78034681    0.00000000
 N                  0.67196532    2.64034681    0.00000000
 H                  1.14178572    2.97368014    0.81740913
 H                  1.14495219    2.97368014   -0.81558096
 N                  2.53196532    0.78034681    0.00000000
 H                  2.86529866    0.31052641    0.81740913
 H                  2.86529866    0.30735994   -0.81558096
 N                  0.67196532    0.78034681   -1.86000000
 H                  0.86124722   -0.14326634   -2.19333333
 H                 -0.22254807    1.07823046   -2.19333333
 N                  0.67196532    0.78034681    1.86000000
 H                 -0.22184686    1.08032792    2.19333333
 H                  0.85908016   -0.14370780    2.19333333
 N                  0.67196532   -1.07965319    0.00000000
 H                  0.20214493   -1.41298652    0.81740913
 H                  0.19897845   -1.41298652   -0.81558096
 N                 -1.18803468    0.78034681    0.00000000
 H                 -1.52136801    0.25982333    0.78609427
 H                 -1.52136801    1.72138615    0.05773943
 H                  1.37719683    1.40607631   -2.19333333
 H                 -0.27084194    2.97368014   -0.00182816
 H                 -1.52136801    0.35983095   -0.84383369
 H                  1.37866268    1.40442031    2.19333333
 H                  2.86529866    1.72315408   -0.00182816
 H                  1.61477259   -1.41298652   -0.00182816

 1 2 1.0 5 1.0 8 1.0 11 1.0 14 1.0 17 1.0
 2 3 1.0 4 1.0 21 1.0
 3
 4
 5 6 1.0 7 1.0 24 1.0
 6
 7
 8 9 1.0 10 1.0 20 1.0
 9
 10
 11 12 1.0 13 1.0 23 1.0
 12
 13
 14 15 1.0 16 1.0 25 1.0
 15
 16
 17 18 1.0 19 1.0 22 1.0
 18
 19
 20
 21
 22
 23
 24
 25

