%chk=cyclopentadiene-ethene-(10).chk
# hf/3-21g geom=connectivity

Title Card Required

0 1
 C                 -0.05012800   -1.10449600    0.25179900
 C                 -1.17808400   -0.63317100   -0.77334400
 H                 -1.63551000   -1.29047200   -1.51383700
 C                 -1.17800900    0.63349400   -0.77314000
 H                 -1.63542800    1.29109400   -1.51341300
 C                 -0.05001500    1.10438000    0.25210600
 C                  1.18338000   -0.79136700   -0.20471200
 H                  1.56409500   -1.23153200   -1.23636100
 C                  1.18340900    0.79142500   -0.20451100
 H                  2.17108300    1.18907700    0.44567700
 H                  2.17102900   -1.18927200    0.44533200
 H                  1.56408700    1.23185700   -1.23600300
 H                 -0.28246500   -2.15312900    0.63930600
 H                 -0.28243300    2.15292000    0.63996400
 C                 -0.34811600   -0.00024000    1.34470600
 H                  0.40458800   -0.00038700    2.16293700
 H                 -1.40367800   -0.00031100    1.73897400

 1 2 1.5 13 1.0 15 1.0
 2 3 1.0 4 1.5
 3
 4 5 1.0 6 1.5
 5
 6 14 1.0 15 1.0
 7 8 1.0 9 2.0 11 1.0
 8
 9 10 1.0 12 1.0
 10
 11
 12
 13
 14
 15 16 1.0 17 1.0
 16
 17

