%rwf=acrylonitrile.rwf
%nosave
%mem=64GB
%nprocshared=20
%chk=acrylonitrile.chk
# opt 6-31+g(d) geom=connectivity m062x

Title Card Required

0 1
 C                 -0.78290200    0.09418000   -0.00006800
 N                 -1.89547100   -0.22591000    0.00004100
 C                  0.59295200    0.51249400    0.00000100
 C                  1.59914900   -0.36433500    0.00000900
 H                  0.76536400    1.58472300    0.00004400
 H                  2.62874000   -0.02269400    0.00005800
 H                  1.41899900   -1.43469100   -0.00003500

 1 2 3.0 3 1.5
 2
 3 4 2.0 5 1.0
 4 6 1.0 7 1.0
 5
 6
 7

