%chk=rutile.chk
# hf/3-21g geom=connectivity

global

0 1
 Ti                 0.00000000    0.00000000    0.00000000
 Nb                 0.00000000    0.00000000    0.00000000
 Cr                 0.00000000    0.00000000    0.00000000
 Fe                 0.00000000    0.00000000    0.00000000
 Al                 0.00000000    0.00000000    0.00000000
 O                  1.39670000    1.39670000    0.00000000
 Ti                 0.00000000    0.00000000    2.95400000
 Ti                 2.29350000    2.29350000    1.47700000
 Nb                 0.00000000    0.00000000    2.95400000
 Nb                 2.29350000    2.29350000    1.47700000
 Cr                 0.00000000    0.00000000    2.95400000
 Cr                 2.29350000    2.29350000    1.47700000
 Al                 2.29350000    2.29350000    1.47700000
 Fe                 0.00000000    0.00000000    2.95400000
 Fe                 2.29350000    2.29350000    1.47700000
 Al                 0.00000000    0.00000000    2.95400000
 O                  1.39670000    1.39670000    2.95400000
 Ti                 0.00000000    4.58700000    0.00000000
 Nb                 0.00000000    4.58700000    0.00000000
 Cr                 0.00000000    4.58700000    0.00000000
 Fe                 0.00000000    4.58700000    0.00000000
 Al                 0.00000000    4.58700000    0.00000000
 Ti                 0.00000000    4.58700000    2.95400000
 Nb                 0.00000000    4.58700000    2.95400000
 Cr                 0.00000000    4.58700000    2.95400000
 Fe                 0.00000000    4.58700000    2.95400000
 O                  0.89680000    3.69020000    1.47700000
 Al                 0.00000000    4.58700000    2.95400000
 Ti                 4.58700000    0.00000000    0.00000000
 Nb                 4.58700000    0.00000000    0.00000000
 Cr                 4.58700000    0.00000000    0.00000000
 Fe                 4.58700000    0.00000000    0.00000000
 Al                 4.58700000    0.00000000    0.00000000
 Ti                 4.58700000    0.00000000    2.95400000
 Nb                 4.58700000    0.00000000    2.95400000
 Cr                 4.58700000    0.00000000    2.95400000
 Fe                 4.58700000    0.00000000    2.95400000
 O                  3.69020000    0.89680000    1.47700000
 Al                 4.58700000    0.00000000    2.95400000
 Ti                 4.58700000    4.58700000    0.00000000
 Nb                 4.58700000    4.58700000    0.00000000
 Cr                 4.58700000    4.58700000    0.00000000
 Fe                 4.58700000    4.58700000    0.00000000
 Al                 4.58700000    4.58700000    0.00000000
 O                  3.19030000    3.19030000    0.00000000
 Ti                 4.58700000    4.58700000    2.95400000
 Nb                 4.58700000    4.58700000    2.95400000
 Cr                 4.58700000    4.58700000    2.95400000
 Fe                 4.58700000    4.58700000    2.95400000
 Al                 4.58700000    4.58700000    2.95400000
 O                  3.19030000    3.19030000    2.95400000

 1 6 1.0 29 0.5 18 0.5 7 0.5
 2
 3
 4
 5
 6 8 1.0
 7 17 1.0 23 0.5 34 0.5
 8 27 1.0 51 1.0 17 1.0 45 1.0 38 1.0
 9
 10
 11
 12
 13
 14
 15
 16
 17
 18 27 1.0 40 0.5 23 0.5
 19
 20
 21
 22
 23 27 1.0 46 0.5
 24
 25
 26
 27
 28
 29 38 1.0 40 0.5 34 0.5
 30
 31
 32
 33
 34 38 1.0 46 0.5
 35
 36
 37
 38
 39
 40 45 1.0 46 0.5
 41
 42
 43
 44
 45
 46 51 1.0
 47
 48
 49
 50
 51

