%chk=sphalerite.chk
# hf/3-21g geom=connectivity

global

0 1
 Zn                 0.00000000    0.00000000    0.00000000
 S                  1.35230000    1.35230000    1.35230000
 Zn                 0.00000000    2.70460000    2.70460000
 Zn                 2.70460000    0.00000000    2.70460000
 Zn                 2.70460000    2.70460000    0.00000000
 Zn                 0.00000000    0.00000000    5.40930000
 Zn                 2.70460000    2.70460000    5.40930000
 Zn                 0.00000000    5.40930000    0.00000000
 Zn                 2.70460000    5.40930000    2.70460000
 Zn                 0.00000000    5.40930000    5.40930000
 S                  1.35230000    4.05700000    4.05700000
 Zn                 5.40930000    0.00000000    0.00000000
 Zn                 5.40930000    2.70460000    2.70460000
 Zn                 5.40930000    0.00000000    5.40930000
 S                  4.05700000    1.35230000    4.05700000
 Zn                 5.40930000    5.40930000    0.00000000
 S                  4.05700000    4.05700000    1.35230000
 Zn                 5.40930000    5.40930000    5.40930000

 1 2 1.0 6 0.5 8 0.5 12 0.5
 2 5 1.0 3 1.0 4 1.0
 3 11 1.0
 4 15 1.0
 5 17 1.0
 6 14 0.5 10 0.5
 7 11 1.0 15 1.0
 8 10 0.5 16 0.5
 9 17 1.0 11 1.0
 10 11 1.0 18 0.5
 11
 12 14 0.5 16 0.5
 13 17 1.0 15 1.0
 14 15 1.0 18 0.5
 15
 16 17 1.0 18 0.5
 17
 18

