%chk=methyl-xanthate.chk
# hf/3-21g geom=connectivity

Title Card Required

0 2
 C                 -1.50084141    0.08056831   -0.25564770
 S                 -0.69372119    1.48495486   -0.25837089
 S                 -0.69372119   -1.32381823   -0.25292450
 O                 -2.93084141    0.08056831   -0.25564770
 C                 -3.40818522    0.07795451   -1.60362249
 H                 -4.47818509    0.07791008   -1.60308461
 H                 -3.05180871    0.95064852   -2.10988423
 H                 -3.05173504   -0.79665091   -2.10652273

 1 2 1.5 3 1.5 4 1.0
 2
 3
 4 5 1.0
 5 6 1.0 7 1.0 8 1.0
 6
 7
 8

