%chk=R-2-methyl-3-oxopropanenitrile.chk
# hf/3-21g geom=connectivity

Title Card Required

0 1
 C                 -2.46387286    0.62138727    0.00000000
 H                 -2.10721843   -0.38742273    0.00000000
 H                 -2.10720002    1.12578546    0.87365150
 H                 -3.53387286    0.62140046    0.00000000
 C                 -1.95053064    1.34734355   -1.25740497
 H                 -2.30704390    0.84283163   -2.13105594
 C                 -2.46407601    2.79919448   -1.25754562
 O                 -2.19280825    3.58925480   -2.15672609
 H                 -3.09617091    3.08371583   -0.39000933
 C                 -0.41053066    1.34756853   -1.25726454
 N                  0.74946934    1.34749988   -1.25723035

 1 2 1.0 3 1.0 4 1.0 5 1.0
 2
 3
 4
 5 6 1.0 7 1.0 10 1.0
 6
 7 8 2.0 9 1.0
 8
 9
 10 11 3.0
 11

