 &GLOBAL   
   PROJECT Methanol   
   RUN_TYPE MD   
   PRINT_LEVEL LOW 
 &END GLOBAL  

 &FORCE_EVAL   
   &DFT
     BASIS_SET_FILE_NAME BASIS_MOLOPT
     POTENTIAL_FILE_NAME POTENTIAL
     &MGRID
       CUTOFF 280
       REL_CUTOFF 40
       NGRIDS 5
     &END
     &SCF
       SCF_GUESS ATOMIC
       MAX_SCF 200
       &OT
         MINIMIZER DIIS
         PRECONDITIONER FULL_SINGLE_INVERSE
       &END
       &PRINT
         &RESTART
           &EACH
             MD 0
           &END
         &END
       &END
     &END
     &LOCALIZE
       METHOD CRAZY
       MAX_ITER 2000
       &PRINT
         &WANNIER_CENTERS
           IONS+CENTERS
           FILENAME =methanol_wannier.xyz
           &EACH
             MD 5
           &END
         &END
       &END
     &END
     &XC
       &XC_FUNCTIONAL BLYP
       &END
       &XC_GRID
         XC_DERIV NN10_SMOOTH
         XC_SMOOTH_RHO NN10
       &END
       &VDW_POTENTIAL
         DISPERSION_FUNCTIONAL PAIR_POTENTIAL
         &PAIR_POTENTIAL
           TYPE DFTD3
           PARAMETER_FILE_NAME dftd3.dat
           REFERENCE_FUNCTIONAL BLYP
         &END
       &END
     &END
   &END

   &SUBSYS
     &CELL
       ABC 10.0 10.0 10.0
     &END
     &COORD
       H        0.84754        0.03474        1.03453
       C        0.35048        0.00675        0.06084
       H        0.63507        0.89276       -0.52006
       H        0.66294       -0.89338       -0.48283
       O       -1.01083       -0.00823        0.36439
       H       -1.48520       -0.03263       -0.45685
     &END
     &KIND H
       BASIS_SET DZVP-MOLOPT-SR-GTH
       POTENTIAL GTH-BLYP-q1
     &END
     &KIND O
       BASIS_SET DZVP-MOLOPT-SR-GTH
       POTENTIAL GTH-BLYP-q6
     &END
     &KIND C
       BASIS_SET DZVP-MOLOPT-SR-GTH
       POTENTIAL GTH-BLYP-q4
     &END
   &END
 &END
 &MOTION
   &MD
     ENSEMBLE NVT
     STEPS 60000
     TIMESTEP 0.5
     &THERMOSTAT
       TYPE NOSE
       &NOSE
         TIMECON 100
      &END
     &END
     TEMPERATURE 400
   &END
   &PRINT
     &RESTART
       &EACH
         MD 1
       &END
     &END
   &END   