%chk=decacarbonyl-dichromium-ii.chk
# hf/3-21g geom=connectivity

Title Card Required

0 1
 Cr                -2.23678618    0.65028901   -0.76877021
 C                 -3.42637317    0.65028901   -3.12352287
 O                 -4.39233790    0.65028901   -3.68122287
 C                  0.36105869    0.65028901   -0.87460981
 O                  1.27622367    0.65028901   -0.23696553
 Cr                -0.82778618    0.65028901   -3.20922979
 C                 -2.41153996    2.51786617   -0.46608777
 O                 -2.53294785    3.81534083   -0.25580314
 C                 -4.13678618    0.65028901   -0.76877021
 O                 -5.45678618    0.65028901   -0.76877021
 C                 -2.23678618    0.65028901    1.13122979
 O                 -2.23678618    0.65028901    2.45122979
 C                 -2.41153996   -1.21728816   -0.46608777
 O                 -2.53294785   -2.51476282   -0.25580314
 C                 -0.65267352    2.51749698   -3.51397549
 O                 -0.53101631    3.81471515   -3.72569355
 C                 -1.16833184    0.65028901   -5.07846190
 O                 -1.40492145    0.65028901   -6.37708631
 C                  0.97135378    0.65028901   -3.82004516
 O                  2.22128259    0.65028901   -4.24440109
 C                 -0.65267352   -1.21691897   -3.51397549
 O                 -0.53101631   -2.51413714   -3.72569355

 1 6 3.0 2 1.0 4 1.0 7 1.0 9 1.0 11 1.0 13 1.0
 2 3 3.0 6 1.0
 3
 4 5 3.0 6 1.0
 5
 6 15 1.0 17 1.0 19 1.0 21 1.0
 7 8 3.0
 8
 9 10 3.0
 10
 11 12 3.0
 12
 13 14 3.0
 14
 15 16 3.0
 16
 17 18 3.0
 18
 19 20 3.0
 20
 21 22 3.0
 22

