%chk=lithium-i-tetrakis-diethyletherate.chk
# hf/3-21g geom=connectivity

Title Card Required

1 1
 Li                 0.49855492    0.47687861    0.00000000
 O                  0.49855492    1.81331042   -1.33643182
 O                  2.04173346   -0.59859867   -0.18452273
 O                 -1.04462362   -0.59859867   -0.18452273
 O                  0.49855492    1.29140133    1.70547727
 C                 -0.57393319    1.88103092   -2.27987402
 H                 -0.41240401    2.70341520   -2.94507505
 H                 -0.61334705    0.97082736   -2.84101217
 H                 -1.49853931    2.01952216   -1.75946677
 C                  1.57104303    2.75675262   -1.40415231
 H                  2.03658310    2.69911313   -2.36584360
 H                  1.18768229    3.74407516   -1.25207093
 H                  2.29135449    2.53300154   -0.64521434
 C                  3.01037539   -0.29254621   -1.19098420
 H                  2.52435271   -0.21115079   -2.14075087
 H                  3.48935478    0.63465453   -0.95481151
 H                  3.74220643   -1.07213822   -1.23047644
 C                  2.24068163   -1.71837202    0.68232631
 H                  2.18428634   -2.62348471    0.11444375
 H                  3.20358032   -1.64593586    1.14328088
 H                  1.48304145   -1.72356751    1.43787536
 C                  1.56536779    2.16709098    2.07961353
 H                  1.33010722    3.16580746    1.77610431
 H                  1.69487001    2.13813439    3.14135299
 H                  2.46937044    1.85256709    1.60133125
 C                 -0.56825796    1.03199079    2.62172858
 H                 -1.49324381    1.35753283    2.19356559
 H                 -0.61826245   -0.01772578    2.82296147
 H                 -0.39151185    1.56206103    3.53424508
 C                 -1.22669101   -1.39216763   -1.36010759
 H                 -1.29672258   -2.42420694   -1.08644640
 H                 -2.12607020   -1.09300886   -1.85661651
 H                 -0.39351241   -1.25307619   -2.01689293
 C                 -2.03014634   -0.61875060    0.85144970
 H                 -1.60289571   -1.02970037    1.74222306
 H                 -2.36552342    0.37889411    1.04413399
 H                 -2.85943869   -1.22052429    0.54315987

 1 2 1.0 3 1.0 4 1.0 5 1.0
 2 6 1.0 10 1.0
 3 14 1.0 18 1.0
 4 30 1.0 34 1.0
 5 22 1.0 26 1.0
 6 7 1.0 8 1.0 9 1.0
 7
 8
 9
 10 11 1.0 12 1.0 13 1.0
 11
 12
 13
 14 15 1.0 16 1.0 17 1.0
 15
 16
 17
 18 19 1.0 20 1.0 21 1.0
 19
 20
 21
 22 23 1.0 24 1.0 25 1.0
 23
 24
 25
 26 27 1.0 28 1.0 29 1.0
 27
 28
 29
 30 31 1.0 32 1.0 33 1.0
 31
 32
 33
 34 35 1.0 36 1.0 37 1.0
 35
 36
 37

