%rwf=butadiene-ethene.rwf
%nosave
%mem=64GB
%nprocshared=20
%chk=butadiene-ethene.chk
# freq 6-31+g(d) guess=read geom=(connectivity) m062x

Title Card Required

0 1
 C                 -0.44887000   -1.42493500    0.50036500
 C                 -1.30953700   -0.70532300   -0.29710000
 H                 -1.84134800   -1.21975800   -1.09474800
 C                 -1.30959000    0.70521500   -0.29711000
 H                 -1.84153400    1.21955200   -1.09473000
 C                 -0.44888500    1.42494000    0.50029600
 H                 -0.12123100    1.03695600    1.45848900
 H                 -0.12128700   -1.03684500    1.45852600
 C                  1.56571900   -0.68989400   -0.23131400
 H                  1.44336600   -1.23440800   -1.16059700
 C                  1.56562100    0.68996400   -0.23130200
 H                  2.05735000    1.23415900    0.56991700
 H                  2.05733100   -1.23394400    0.57007900
 H                  1.44307600    1.23436800   -1.16064200
 H                 -0.38105100   -2.50455500    0.39532200
 H                 -0.38142800    2.50467500    0.39537700

 1 2 2.0 8 1.0 15 1.0
 2 3 1.0 4 1.5
 3
 4 5 1.0 6 2.0
 5
 6 7 1.0 16 1.0
 7
 8
 9 10 1.0 11 2.0 13 1.0
 10
 11 12 1.0 14 1.0
 12
 13
 14
 15
 16

