Al2O3_corundum  Al2O3  (Corundum (sapphire))  [cartesian]
1.0
   2.4025136104259079   -4.1612756391334127    0.0000000000000000
   2.4025136104259079    4.1612756391334127    0.0000000000000000
   0.0000000000000000    0.0000000000000000   13.1162532478223355
Al O
12 18
cartesian
   2.4025136104259079    1.3870918797111373   10.6841151522474593 Al
   2.4025136104259079   -1.3870918797111376    8.9902647194860439 Al
   0.0000000000000000    0.0000000000000000    8.4980729442770713 Al
   2.4025136104259079    1.3870918797111378    6.8042225115156540 Al
   0.0000000000000000    0.0000000000000000    1.9399463203659035 Al
   2.4025136104259075    1.3870918797111376    0.2460958876044867 Al
   2.4025136104259079   -1.3870918797111376   12.8701573602178492 Al
   0.0000000000000000    0.0000000000000000   11.1763069274564319 Al
   2.4025136104259075   -1.3870918797111378    6.3120307363066814 Al
   0.0000000000000000    0.0000000000000000    4.6181803035452642 Al
   2.4025136104259079    1.3870918797111373    4.1259885283362907 Al
   2.4025136104259084   -1.3870918797111369    2.4321380955748770 Al
   1.6669948799052641   -0.1131360685308212    7.6511477278963627 O
   3.3339897598105286    0.0000000000000000    9.8371899358667516 O
   3.8735510714671957   -1.3870918797111378    7.6511477278963627 O
   1.6669948799052645   -2.6610476908914542    7.6511477278963627 O
   0.7355187305206436    1.2739558111803162    9.8371899358667516 O
   0.7355187305206436   -1.2739558111803162    9.8371899358667516 O
   1.6669948799052641    2.6610476908914538   12.0232321438371415 O
   0.9314761493846202   -1.3870918797111371    1.0930211039851936 O
   3.8735510714671957    1.3870918797111373   12.0232321438371415 O
   1.6669948799052645    0.1131360685308206   12.0232321438371415 O
   3.1380323409465514   -0.1131360685308217    1.0930211039851936 O
   3.1380323409465514   -2.6610476908914533    1.0930211039851936 O
   1.6669948799052643   -2.8873198279530965    3.2790633119555839 O
   0.9314761493846201    1.3870918797111373    5.4651055199259710 O
   1.4710374610412873   -0.0000000000000000    3.2790633119555839 O
   1.6669948799052643    2.8873198279530965    3.2790633119555839 O
   3.1380323409465514    2.6610476908914538    5.4651055199259710 O
   3.1380323409465514    0.1131360685308217    5.4651055199259710 O
