BN_hexagonal  BN  (Hexagonal boron nitride (graphite-like))  [cartesian]
1.0
   1.2509442420789940   -2.1666989847165588    0.0000000000000000
   1.2509442420789940    2.1666989847165588    0.0000000000000000
   0.0000000000000000    0.0000000000000000    6.8546156800000002
B N
2 2
cartesian
   0.0000000000000000    0.0000000000000000    5.1409617599999997 B
   0.0000000000000000    0.0000000000000000    1.7136539200000001 B
   1.2509442420789940   -0.7222329949055195    1.7136539200000001 N
   1.2509442420789942    0.7222329949055197    5.1409617599999997 N
