BN_zincblende  BN  (Cubic boron nitride (zincblende))  [cartesian]
1.0
   3.6260019999999979    0.0000000000000000    0.0000000000000002
  -0.0000000000000002    3.6260019999999979    0.0000000000000002
   0.0000000000000000    0.0000000000000000    3.6260019999999979
B N
4 4
cartesian
   0.0000000000000000    0.0000000000000000    0.0000000000000000 B
  -0.0000000000000001    1.8130009999999990    1.8130009999999990 B
   1.8130009999999990    0.0000000000000000    1.8130009999999990 B
   1.8130009999999990    1.8130009999999990    0.0000000000000002 B
   0.9065004999999995    0.9065004999999995    2.7195014999999985 N
   0.9065004999999994    2.7195014999999985    0.9065004999999997 N
   2.7195014999999985    0.9065004999999995    0.9065004999999997 N
   2.7195014999999985    2.7195014999999985    2.7195014999999989 N
