C_diamond  C  (Diamond cubic)  [cartesian]
1.0
   3.5607451090903233    0.0000000000000000    0.0000000000000002
  -0.0000000000000002    3.5607451090903233    0.0000000000000002
   0.0000000000000000    0.0000000000000000    3.5607451090903233
C
8
cartesian
   0.0000000000000000    0.0000000000000000    1.7803725545451616 C
   0.8901862772725808    0.8901862772725808    2.6705588318177425 C
  -0.0000000000000001    1.7803725545451616    0.0000000000000001 C
   0.8901862772725807    2.6705588318177425    0.8901862772725810 C
   1.7803725545451616    0.0000000000000000    0.0000000000000001 C
   2.6705588318177425    0.8901862772725808    0.8901862772725810 C
   1.7803725545451616    1.7803725545451616    1.7803725545451619 C
   2.6705588318177425    2.6705588318177425    2.6705588318177429 C
