C_graphite  C  (Graphite (layered))  [cartesian]
1.0
   1.2336456308015413   -2.1367369110836267    0.0000000000000000
   1.2336456308015413    2.1367369110836267    0.0000000000000000
   0.0000000000000000    0.0000000000000000    7.8030729999999995
C
4
cartesian
   0.0000000000000000    0.0000000000000000    1.9507682499999999 C
   0.0000000000000000    0.0000000000000000    5.8523047500000001 C
   1.2336456308015413    0.7122456370278755    1.9507682499999999 C
   1.2336456308015415   -0.7122456370278757    5.8523047500000001 C
