Ca F
1.0
  5.377058000000   0.000000000000   0.000000000000
  0.000000000000   5.377058000000   0.000000000000
  0.000000000000   0.000000000000   5.377058000000
Ca F
4 8
Direct
  0.000000000000   0.000000000000   0.000000000000
  0.500000000000   0.500000000000   0.000000000000
  0.500000000000   0.000000000000   0.500000000000
  0.000000000000   0.500000000000   0.500000000000
  0.250000000000   0.250000000000   0.250000000000
  0.750000000000   0.250000000000   0.250000000000
  0.250000000000   0.750000000000   0.250000000000
  0.750000000000   0.750000000000   0.250000000000
  0.250000000000   0.250000000000   0.750000000000
  0.750000000000   0.250000000000   0.750000000000
  0.250000000000   0.750000000000   0.750000000000
  0.750000000000   0.750000000000   0.750000000000