CaF2_fluorite  CaF2  (Fluorite — AB2)  [cartesian]
1.0
   5.5160519363123797    0.0000000000000000    0.0000000000000003
  -0.0000000000000003    5.5160519363123797    0.0000000000000003
   0.0000000000000000    0.0000000000000000    5.5160519363123797
Ca F
4 8
cartesian
   0.0000000000000000    0.0000000000000000    0.0000000000000000 Ca
  -0.0000000000000002    2.7580259681561898    2.7580259681561898 Ca
   2.7580259681561898    0.0000000000000000    2.7580259681561898 Ca
   2.7580259681561898    2.7580259681561898    0.0000000000000003 Ca
   1.3790129840780947    4.1370389522342847    1.3790129840780954 F
   1.3790129840780947    4.1370389522342847    4.1370389522342847 F
   1.3790129840780949    1.3790129840780949    4.1370389522342847 F
   1.3790129840780949    1.3790129840780949    1.3790129840780951 F
   4.1370389522342847    4.1370389522342847    4.1370389522342856 F
   4.1370389522342847    4.1370389522342847    1.3790129840780954 F
   4.1370389522342847    1.3790129840780949    1.3790129840780954 F
   4.1370389522342847    1.3790129840780949    4.1370389522342847 F
