CdS_wurtzite  CdS  (Wurtzite (greenockite))  [cartesian]
1.0
   2.0844190497554722   -3.6103196984409172    0.0000000000000000
   2.0844190497554722    3.6103196984409172    0.0000000000000000
   0.0000000000000000    0.0000000000000000    6.7796174100000002
Cd S
2 2
cartesian
   2.0844190497554722   -1.2034398994803057    3.3913298477582816 Cd
   2.0844190497554722    1.2034398994803055    0.0015211427582815 Cd
   2.0844190497554722   -1.2034398994803057    5.9442033258117188 S
   2.0844190497554722    1.2034398994803055    2.5543946208117188 S
