Cu_FCC  Cu  (Face-centred-cubic metal)  [cartesian]
1.0
   3.5774306715697510    0.0000000000000000    0.0000000000000002
  -0.0000000000000002    3.5774306715697510    0.0000000000000002
   0.0000000000000000    0.0000000000000000    3.5774306715697510
Cu
4
cartesian
   0.0000000000000000    0.0000000000000000    0.0000000000000000 Cu
  -0.0000000000000001    1.7887153357848755    1.7887153357848755 Cu
   1.7887153357848755    0.0000000000000000    1.7887153357848755 Cu
   1.7887153357848755    1.7887153357848755    0.0000000000000002 Cu
