Fe2O3_hematite  Fe2O3  (Hematite — corundum-type)  [cartesian]
1.0
   2.5459510242832568   -4.4097165276406249    0.0000000000000000
   2.5459510242832568    4.4097165276406249    0.0000000000000000
   0.0000000000000000    0.0000000000000000   13.7742976534924182
Fe O
12 18
cartesian
   2.5459510242832568    1.4699055092135416    7.1831515502566088 Fe
   0.0000000000000000    0.0000000000000000    8.8868623788178791 Fe
   2.5459510242832568    1.4699055092135420   11.1825786543999488 Fe
   2.5459510242832573   -1.4699055092135420    9.4788678258386785 Fe
   0.0000000000000000    0.0000000000000000   11.7745841014207482 Fe
   2.5459510242832568   -1.4699055092135416   13.4782949299820167 Fe
   0.0000000000000000    0.0000000000000000    1.9997135520716693 Fe
   2.5459510242832573    1.4699055092135409    0.2960027235103982 Fe
   2.5459510242832564   -1.4699055092135418    2.5917189990924689 Fe
   2.5459510242832568    1.4699055092135416    4.2954298276537397 Fe
   2.5459510242832573   -1.4699055092135409    6.5911461032358076 Fe
   0.0000000000000000    0.0000000000000000    4.8874352746745364 Fe
   3.5368305547629468    0.0000000000000000   10.3307232401193136 O
   0.7775357469017835   -1.3467314183349042   10.3307232401193136 O
   1.7684152773814730   -2.8166369275484460    8.0350069645372422 O
   1.7684152773814730   -0.1231740908786370    8.0350069645372422 O
   4.1010225180868236   -1.4699055092135418    8.0350069645372422 O
   0.7775357469017835    1.3467314183349042   10.3307232401193136 O
   0.9908795304796892   -1.4699055092135414    1.1478581377910337 O
   3.3234867711850402   -2.8166369275484460    1.1478581377910337 O
   1.7684152773814730    0.1231740908786374   12.6264395157013816 O
   1.7684152773814725    2.8166369275484469   12.6264395157013816 O
   4.1010225180868236    1.4699055092135414   12.6264395157013816 O
   3.3234867711850398   -0.1231740908786377    1.1478581377910337 O
   0.9908795304796894    1.4699055092135414    5.7392906889551725 O
   3.3234867711850402    0.1231740908786376    5.7392906889551725 O
   1.7684152773814730    3.0629851093057203    3.4435744133731045 O
   1.7684152773814727   -3.0629851093057199    3.4435744133731045 O
   1.5550714938035670   -0.0000000000000000    3.4435744133731045 O
   3.3234867711850402    2.8166369275484455    5.7392906889551725 O
