FeS2_pyrite  FeS2  (Pyrite (Pa-3))  [cartesian]
1.0
   5.3968237999999999    0.0000000000000000    0.0000000000000003
  -0.0000000000000003    5.3968237999999999    0.0000000000000003
   0.0000000000000000    0.0000000000000000    5.3968237999999999
Fe S
4 8
cartesian
  -0.0000000000000002    2.6984119000000000    2.6984119000000000 Fe
   2.6984119000000000    2.6984119000000000    0.0000000000000003 Fe
   2.6984119000000000    0.0000000000000000    2.6984119000000000 Fe
   0.0000000000000000    0.0000000000000000    0.0000000000000000 Fe
   2.0798287115993319    0.6185831884006681    4.7782406115993323 S
   0.6185831884006677    4.7782406115993314    2.0798287115993328 S
   4.7782406115993314    2.0798287115993319    0.6185831884006685 S
   3.3169950884006680    3.3169950884006680    3.3169950884006685 S
   2.0798287115993319    2.0798287115993319    2.0798287115993328 S
   0.6185831884006678    3.3169950884006680    4.7782406115993323 S
   4.7782406115993314    0.6185831884006681    3.3169950884006685 S
   3.3169950884006676    4.7782406115993314    0.6185831884006686 S
