GaAs_zincblende  GaAs  (Zincblende III-V semiconductor)  [cartesian]
1.0
   5.7501820992500150    0.0000000000000000    0.0000000000000004
  -0.0000000000000004    5.7501820992500150    0.0000000000000004
   0.0000000000000000    0.0000000000000000    5.7501820992500150
Ga As
4 4
cartesian
   0.0000000000000000    0.0000000000000000    0.0000000000000000 Ga
  -0.0000000000000002    2.8750910496250075    2.8750910496250075 Ga
   2.8750910496250075    0.0000000000000000    2.8750910496250075 Ga
   2.8750910496250075    2.8750910496250075    0.0000000000000004 Ga
   1.4375455248125035    4.3126365744375112    4.3126365744375112 As
   1.4375455248125037    1.4375455248125037    1.4375455248125040 As
   4.3126365744375112    4.3126365744375112    1.4375455248125042 As
   4.3126365744375112    1.4375455248125037    4.3126365744375112 As
