Li2O_antifluorite  Li2O  (Antifluorite — A2B)  [cartesian]
1.0
   4.6537087638360690    0.0000000000000000    0.0000000000000003
  -0.0000000000000003    4.6537087638360690    0.0000000000000003
   0.0000000000000000    0.0000000000000000    4.6537087638360690
Li O
8 4
cartesian
   1.1634271909590170    3.4902815728770520    1.1634271909590175 Li
   3.4902815728770520    1.1634271909590173    3.4902815728770520 Li
   1.1634271909590173    1.1634271909590173    3.4902815728770520 Li
   3.4902815728770520    3.4902815728770520    1.1634271909590177 Li
   3.4902815728770520    3.4902815728770520    3.4902815728770520 Li
   1.1634271909590173    1.1634271909590173    1.1634271909590175 Li
   3.4902815728770520    1.1634271909590173    1.1634271909590175 Li
   1.1634271909590170    3.4902815728770520    3.4902815728770520 Li
   0.0000000000000000    0.0000000000000000    0.0000000000000000 O
  -0.0000000000000001    2.3268543819180345    2.3268543819180345 O
   2.3268543819180345    0.0000000000000000    2.3268543819180345 O
   2.3268543819180345    2.3268543819180345    0.0000000000000003 O
