MgAl2O4_spinel  MgAl2O4  (Spinel AB2O4)  [cartesian]
1.0
   8.0803911888284503    0.0000000000000000    0.0000000000000005
  -0.0000000000000005    8.0803911888284503    0.0000000000000005
   0.0000000000000000    0.0000000000000000    8.0803911888284503
Mg Al O
8 16 32
cartesian
   2.0200977972071121    6.0602933916213377    6.0602933916213386 Mg
  -0.0000000000000002    4.0401955944142252    4.0401955944142252 Mg
   2.0200977972071126    2.0200977972071126    2.0200977972071130 Mg
   0.0000000000000000    0.0000000000000000    0.0000000000000000 Mg
   6.0602933916213377    6.0602933916213377    2.0200977972071135 Mg
   4.0401955944142252    4.0401955944142252    0.0000000000000005 Mg
   6.0602933916213377    2.0200977972071126    6.0602933916213386 Mg
   4.0401955944142252    0.0000000000000000    4.0401955944142252 Mg
   5.0502444930177814    3.0301466958106689    3.0301466958106693 Al
   5.0502444930177814    1.0100488986035563    1.0100488986035567 Al
   3.0301466958106689    1.0100488986035563    7.0703422902248940 Al
   3.0301466958106684    7.0703422902248940    1.0100488986035570 Al
   5.0502444930177814    7.0703422902248940    7.0703422902248949 Al
   5.0502444930177814    5.0502444930177814    5.0502444930177823 Al
   3.0301466958106684    5.0502444930177814    3.0301466958106693 Al
   3.0301466958106689    3.0301466958106689    5.0502444930177814 Al
   1.0100488986035561    3.0301466958106689    7.0703422902248940 Al
   1.0100488986035563    1.0100488986035563    5.0502444930177814 Al
   7.0703422902248940    1.0100488986035563    3.0301466958106693 Al
   7.0703422902248940    7.0703422902248940    5.0502444930177823 Al
   1.0100488986035558    7.0703422902248940    3.0301466958106693 Al
   1.0100488986035561    5.0502444930177814    1.0100488986035567 Al
   7.0703422902248940    5.0502444930177814    7.0703422902248949 Al
   7.0703422902248940    3.0301466958106689    1.0100488986035570 Al
   6.9594739900559821    2.9192783956417574    2.9192783956417583 O
   3.1410149959795812    0.8991805984346440    0.8991805984346443 O
   4.9393761928488704    0.8991805984346440    7.1812105903938068 O
   4.9393761928488704    7.1812105903938050    0.8991805984346447 O
   5.1611127931866925    1.1209171987724678    2.9192783956417570 O
   5.1611127931866925    2.9192783956417574    1.1209171987724691 O
   3.1410149959795799    7.1812105903938050    7.1812105903938068 O
   6.9594739900559830    1.1209171987724686    1.1209171987724682 O
   6.9594739900559821    6.9594739900559830    6.9594739900559839 O
   3.1410149959795808    4.9393761928488695    4.9393761928488695 O
   4.9393761928488704    4.9393761928488695    3.1410149959795817 O
   4.9393761928488704    3.1410149959795812    4.9393761928488695 O
   5.1611127931866925    5.1611127931866925    6.9594739900559821 O
   5.1611127931866925    6.9594739900559830    5.1611127931866942 O
   3.1410149959795803    3.1410149959795812    3.1410149959795817 O
   6.9594739900559830    5.1611127931866934    5.1611127931866934 O
   2.9192783956417565    2.9192783956417574    6.9594739900559830 O
   7.1812105903938059    0.8991805984346440    4.9393761928488695 O
   0.8991805984346440    0.8991805984346440    3.1410149959795812 O
   0.8991805984346436    7.1812105903938050    4.9393761928488695 O
   1.1209171987724686    1.1209171987724678    6.9594739900559821 O
   1.1209171987724684    2.9192783956417574    5.1611127931866942 O
   7.1812105903938050    7.1812105903938050    3.1410149959795821 O
   2.9192783956417565    1.1209171987724686    5.1611127931866934 O
   2.9192783956417561    6.9594739900559830    2.9192783956417583 O
   7.1812105903938059    4.9393761928488695    0.8991805984346447 O
   0.8991805984346437    4.9393761928488695    7.1812105903938068 O
   0.8991805984346438    3.1410149959795812    0.8991805984346443 O
   1.1209171987724684    5.1611127931866925    2.9192783956417570 O
   1.1209171987724682    6.9594739900559830    1.1209171987724691 O
   7.1812105903938050    3.1410149959795812    7.1812105903938068 O
   2.9192783956417561    5.1611127931866934    1.1209171987724682 O
