MgO_rocksalt  MgO  (Rocksalt oxide (periclase))  [cartesian]
1.0
   4.1940027853522395    0.0000000000000000    0.0000000000000003
  -0.0000000000000003    4.1940027853522395    0.0000000000000003
   0.0000000000000000    0.0000000000000000    4.1940027853522395
Mg O
4 4
cartesian
   0.0000000000000000    0.0000000000000000    0.0000000000000000 Mg
  -0.0000000000000001    2.0970013926761197    2.0970013926761197 Mg
   2.0970013926761197    0.0000000000000000    2.0970013926761197 Mg
   2.0970013926761197    2.0970013926761197    0.0000000000000003 Mg
   0.0000000000000000    0.0000000000000000    2.0970013926761197 O
  -0.0000000000000001    2.0970013926761197    0.0000000000000001 O
   2.0970013926761197    0.0000000000000000    0.0000000000000001 O
   2.0970013926761197    2.0970013926761197    2.0970013926761202 O
