NaCl_rocksalt  NaCl  (Rocksalt (halite) — the canonical AB rocksalt)  [cartesian]
1.0
   5.5881264354399347    0.0000000000000000    0.0000000000000003
  -0.0000000000000003    5.5881264354399347    0.0000000000000003
   0.0000000000000000    0.0000000000000000    5.5881264354399347
Na Cl
4 4
cartesian
   0.0000000000000000    0.0000000000000000    0.0000000000000000 Na
  -0.0000000000000002    2.7940632177199674    2.7940632177199674 Na
   2.7940632177199674    0.0000000000000000    2.7940632177199674 Na
   2.7940632177199674    2.7940632177199674    0.0000000000000003 Na
   0.0000000000000000    0.0000000000000000    2.7940632177199674 Cl
  -0.0000000000000002    2.7940632177199674    0.0000000000000002 Cl
   2.7940632177199674    0.0000000000000000    0.0000000000000002 Cl
   2.7940632177199674    2.7940632177199674    2.7940632177199678 Cl
