NiAs_nickeline  NiAs  (Nickeline (NiAs type))  [cartesian]
1.0
   1.8013296287422498   -3.1199944381607594    0.0000000000000000
   1.8013296287422498    3.1199944381607594    0.0000000000000000
   0.0000000000000000    0.0000000000000000    5.0111873999999998
Ni As
2 2
cartesian
   0.0000000000000000    0.0000000000000000    0.0000000000000000 Ni
   0.0000000000000000    0.0000000000000000    2.5055936999999999 Ni
   1.8013296287422498    1.0399981460535865    1.2527968500000000 As
   1.8013296287422500   -1.0399981460535865    3.7583905499999997 As
