PbS_rocksalt  PbS  (Galena — rocksalt sulfide)  [cartesian]
1.0
   4.2305071600000002    0.0000000000000000    0.0000000000000003
  -0.0000000000000004    5.9824947999999996    0.0000000000000004
   0.0000000000000000    0.0000000000000000    8.4331939299999998
Pb S
4 4
cartesian
   3.1728803699999997    4.4874021062384477    1.0437337407548146 Pb
   3.1728803699999997    4.4863400937615516    5.2603307057548152 Pb
   1.0576267900000000    1.4950926937615518    7.3894601892451854 Pb
   1.0576267900000000    1.4961547062384486    3.1728632242451860 Pb
   1.0576267899999998    4.4925486670400439    7.3769898567170165 S
   1.0576267899999998    4.4811935329599555    3.1603928917170165 S
   3.1728803700000001    1.4899461329599557    1.0562040732829838 S
   3.1728803700000001    1.5013012670400447    5.2728010382829842 S
