ReO3_structure  ReO3  (ReO3 framework (corner-sharing octahedra))  [cartesian]
1.0
   3.7651534333342460    0.0000000000000000    0.0000000000000002
  -0.0000000000000002    3.7651534333342460    0.0000000000000002
   0.0000000000000000    0.0000000000000000    3.7651534333342460
Re O
1 3
cartesian
   0.0000000000000000    0.0000000000000000    0.0000000000000000 Re
  -0.0000000000000001    1.8825767166671230    0.0000000000000001 O
   1.8825767166671230    0.0000000000000000    0.0000000000000001 O
   0.0000000000000000    0.0000000000000000    1.8825767166671230 O
