Si_diamond  Si  (Silicon, diamond structure)  [cartesian]
1.0
   5.4437023729394527    0.0000000000000000    0.0000000000000003
  -0.0000000000000003    5.4437023729394527    0.0000000000000003
   0.0000000000000000    0.0000000000000000    5.4437023729394527
Si
8
cartesian
   4.0827767797045897    4.0827767797045897    1.3609255932348636 Si
  -0.0000000000000002    2.7218511864697263    2.7218511864697263 Si
   4.0827767797045897    1.3609255932348632    4.0827767797045897 Si
   0.0000000000000000    0.0000000000000000    0.0000000000000000 Si
   1.3609255932348630    4.0827767797045897    4.0827767797045897 Si
   2.7218511864697263    2.7218511864697263    0.0000000000000003 Si
   1.3609255932348632    1.3609255932348632    1.3609255932348634 Si
   2.7218511864697263    0.0000000000000000    2.7218511864697263 Si
