SrTiO3_perovskite  SrTiO3  (Cubic perovskite ABO3)  [cartesian]
1.0
   3.9127013100000005    0.0000000000000000    0.0000000000000002
  -0.0000000000000002    3.9127013100000005    0.0000000000000002
   0.0000000000000000    0.0000000000000000    3.9127013100000005
Sr Ti O
1 1 3
cartesian
   0.0000000000000000    0.0000000000000000    0.0000000000000000 Sr
   1.9563506550000000    1.9563506550000003    1.9563506550000005 Ti
   1.9563506550000003    0.0000000000000000    1.9563506550000005 O
   1.9563506550000000    1.9563506550000003    0.0000000000000002 O
  -0.0000000000000001    1.9563506550000003    1.9563506550000005 O
