TiO2_brookite  TiO2  (Brookite (Pbca))  [cartesian]
1.0
   5.1491190800000002    0.0000000000000000    0.0000000000000003
  -0.0000000000000003    5.4591221900000004    0.0000000000000003
   0.0000000000000000    0.0000000000000000    9.1942032999999999
Ti O
8 16
cartesian
   0.7101176383735305    2.1977464039610117    3.4113299394426839 Ti
   3.2846771783735309    3.2613757860389887    1.1857717105573164 Ti
   1.8644419016264691    4.9273074989610119    5.7828733605573168 Ti
   4.4390014416264698    0.5318146910389884    8.0084315894426847 Ti
   4.4390014416264698    3.2613757860389887    5.7828733605573168 Ti
   1.8644419016264691    2.1977464039610117    8.0084315894426847 Ti
   3.2846771783735309    0.5318146910389884    3.4113299394426839 Ti
   0.7101176383735303    4.9273074989610119    1.1857717105573164 Ti
   2.3928477455610890    2.1290247901844159    2.4797682042748685 O
   4.9674072855610891    3.3300973998155849    2.1173334457251323 O
   0.1817117944389106    4.8585858851844161    6.7144350957251318 O
   2.7562713344389111    0.6005363048155844    7.0768698542748680 O
   2.7562713344389111    3.3300973998155849    6.7144350957251318 O
   0.1817117944389108    2.1290247901844159    7.0768698542748680 O
   4.9674072855610891    0.6005363048155844    2.4797682042748685 O
   2.3928477455610886    4.8585858851844161    2.1173334457251323 O
   4.2049319626287760    4.6467425195438121    0.0963503776562520 O
   1.6303724226287759    0.8123796704561884    4.5007512723437486 O
   3.5187466573712243    1.9171814245438124    9.0978529223437494 O
   0.9441871173712241    3.5419407654561885    4.6934520276562512 O
   0.9441871173712243    0.8123796704561884    9.0978529223437494 O
   3.5187466573712238    4.6467425195438121    4.6934520276562521 O
   1.6303724226287757    3.5419407654561885    0.0963503776562517 O
   4.2049319626287760    1.9171814245438124    4.5007512723437486 O
