TiO2_rutile  TiO2  (Rutile (P4_2/mnm))  [cartesian]
1.0
   4.5998373238807098    0.0000000000000000    0.0000000000000003
  -0.0000000000000003    4.5998373238807098    0.0000000000000003
   0.0000000000000000    0.0000000000000000    2.9592135600011331
Ti O
2 4
cartesian
   2.2999186619403549    2.2999186619403549    0.0000000000000003 Ti
   0.0000000000000000    0.0000000000000000    1.4796067800005666 Ti
   3.2000087806912516    3.2000087806912516    1.4796067800005670 O
   0.9000901187508965    3.6997472051298130    0.0000000000000003 O
   3.6997472051298130    0.9000901187508967    0.0000000000000003 O
   1.3998285431894582    1.3998285431894582    1.4796067800005668 O
