TiO2_anatase  TiO2  (Anatase (I4_1/amd))  [cartesian]
1.0
   3.7825396799176323    0.0000000000000000    0.0000000000000002
  -0.0000000000000002    3.7825396799176323    0.0000000000000002
   0.0000000000000000    0.0000000000000000    9.6150215748012364
Ti O
4 8
cartesian
   1.8912698399588159    1.8912698399588161    4.8075107874006182 Ti
   1.8912698399588161    0.0000000000000000    7.2112661811009273 Ti
   0.0000000000000000    0.0000000000000000    0.0000000000000000 Ti
  -0.0000000000000001    1.8912698399588161    2.4037553937003091 Ti
  -0.0000000000000001    1.8912698399588161    4.3955275448412321 O
   1.8912698399588159    1.8912698399588161    6.7992829385415412 O
   1.8912698399588161    0.0000000000000000    5.2194940299600043 O
   0.0000000000000000    0.0000000000000000    7.6232494236603134 O
   1.8912698399588161    0.0000000000000000    9.2030383322418494 O
   0.0000000000000000    0.0000000000000000    1.9917721511409217 O
  -0.0000000000000001    1.8912698399588161    0.4119832425593875 O
   1.8912698399588159    1.8912698399588161    2.8157386362596966 O
