V H O
1.0
  3.070344606000   0.000000000000   0.000000000000
  0.000000000000  12.292270888000   0.000000000000
  0.000000000000   0.000000000000   3.987402299000
H O V
4 8 4
Direct
  0.000000000000   0.014393597539   0.062837903279
  0.500000000000   0.514393597539   0.062837903279
  0.500000000000   0.485606402461   0.562837903279
  0.000000000000   0.985606402461   0.562837903279
  0.000000000000   0.290415012208   0.248467529913
  0.500000000000   0.790415012208   0.248467529913
  0.000000000000   0.068673234400   0.255168634541
  0.500000000000   0.568673234400   0.255168634541
  0.500000000000   0.209584987792   0.748467529913
  0.000000000000   0.709584987792   0.748467529913
  0.500000000000   0.431326765600   0.755168634541
  0.000000000000   0.931326765600   0.755168634541
  0.500000000000   0.177709673331   0.244133881410
  0.000000000000   0.677709673331   0.244133881410
  0.000000000000   0.322290326669   0.744133881410
  0.500000000000   0.822290326669   0.744133881410