V H O
1.0
  1.535172303000  -6.146135444000   0.000000000000
  1.535172303000   6.146135444000   0.000000000000
  0.000000000000   0.000000000000   3.987402299000
H O V
2 4 2
Direct
  0.985606402461   0.014393597539   0.062837903279
  0.014393597539   0.985606402461   0.562837903279
  0.709584987792   0.290415012208   0.248467529913
  0.931326765600   0.068673234400   0.255168634541
  0.290415012208   0.709584987792   0.748467529913
  0.068673234400   0.931326765600   0.755168634541
  0.322290326669   0.677709673331   0.244133881410
  0.677709673331   0.322290326669   0.744133881410