ZnS_wurtzite  ZnS  (Wurtzite polymorph of ZnS)  [cartesian]
1.0
   1.9043349529267042   -3.2984048930983376    0.0000000000000000
   1.9043349529267042    3.2984048930983376    0.0000000000000000
   0.0000000000000000    0.0000000000000000   62.2638534900000025
Zn S
20 20
cartesian
   0.0000000000000000    0.0000000000000000   24.9057923193295707 Zn
   1.9043349529267042    1.0994682976994457   28.0176500568107443 Zn
   1.9043349529267042   -1.0994682976994459   12.4539537112163075 Zn
   1.9043349529267042   -1.0994682976994459   40.4717756162626827 Zn
   1.9043349529267042    1.0994682976994457   43.5858804562163087 Zn
   0.0000000000000000    0.0000000000000000   37.3587037336384569 Zn
   1.9043349529267044   -1.0994682976994463   59.1495768018107455 Zn
   0.0000000000000000    0.0000000000000000    6.2267769886384556 Zn
   1.9043349529267042   -1.0994682976994459   21.7937334696016123 Zn
   1.9043349529267042   -1.0994682976994459    3.1165076020598077 Zn
   0.0000000000000000    0.0000000000000000   56.0377190643295719 Zn
   1.9043349529267042    1.0994682976994457   34.2484343470598063 Zn
   0.0000000000000000    0.0000000000000000   15.5661613715540987 Zn
   1.9043349529267042    1.0994682976994457   52.9256602146016135 Zn
   0.0000000000000000    0.0000000000000000   46.6980881165540964 Zn
   1.9043349529267042   -1.0994682976994459   31.1331496070825438 Zn
   1.9043349529267042    1.0994682976994457    9.3398488712626886 Zn
   1.9043349529267042   -1.0994682976994459   49.8114937334330392 Zn
   1.9043349529267042    1.0994682976994457   18.6795669884330415 Zn
   1.9043349529267042    1.0994682976994457    0.0012228620825497 Zn
   1.9043349529267042   -1.0994682976994459   14.7868134343592583 S
   1.9043349529267042   -1.0994682976994459   52.1453222821362843 S
   1.9043349529267042    1.0994682976994457   55.2585174471904281 S
   1.9043349529267042    1.0994682976994457   21.0133955371362795 S
   0.0000000000000000    0.0000000000000000   49.0319085709563964 S
   1.9043349529267042   -1.0994682976994459    5.4479252943559233 S
   1.9043349529267042    1.0994682976994457   30.3500041974633490 S
   0.0000000000000000    0.0000000000000000   17.8999818259563881 S
   0.0000000000000000    0.0000000000000000    8.5604143873114928 S
   1.9043349529267042   -1.0994682976994459   42.8055587123528838 S
   1.9043349529267042    1.0994682976994457    2.3367947986835156 S
   1.9043349529267044   -1.0994682976994463   61.4819309424633502 S
   1.9043349529267044   -1.0994682976994463   33.4687215436835146 S
   1.9043349529267044   -1.0994682976994463   24.1265907021904198 S
   1.9043349529267042    1.0994682976994457   45.9187401793592613 S
   1.9043349529267042    1.0994682976994457   11.6736319673528790 S
   0.0000000000000000    0.0000000000000000   39.6923411323114905 S
   1.9043349529267042    1.0994682976994457   36.5798520393559272 S
   0.0000000000000000    0.0000000000000000   58.3711329357685784 S
   0.0000000000000000    0.0000000000000000   27.2392061907685807 S
