ZnS_zincblende  ZnS  (Zincblende (sphalerite))  [cartesian]
1.0
   5.3873657545963276    0.0000000000000000    0.0000000000000003
  -0.0000000000000003    5.3873657545963276    0.0000000000000003
   0.0000000000000000    0.0000000000000000    5.3873657545963276
Zn S
4 4
cartesian
   0.0000000000000000    0.0000000000000000    0.0000000000000000 Zn
  -0.0000000000000002    2.6936828772981638    2.6936828772981638 Zn
   2.6936828772981638    0.0000000000000000    2.6936828772981638 Zn
   2.6936828772981638    2.6936828772981638    0.0000000000000003 Zn
   1.3468414386490817    4.0405243159472457    4.0405243159472457 S
   1.3468414386490819    1.3468414386490819    1.3468414386490821 S
   4.0405243159472457    4.0405243159472457    1.3468414386490823 S
   4.0405243159472457    1.3468414386490819    4.0405243159472457 S
